*SPEF "ieee 1481-1999"
*DESIGN "i2c_master_top"
*DATE "11:11:11 Fri 11 11, 1111"
*VENDOR "OpenRCX"
*PROGRAM "Parallel Extraction"
*VERSION "1.0"
*DESIGN_FLOW "NAME_SCOPE LOCAL" "PIN_CAP NONE"
*DIVIDER /
*DELIMITER :
*BUS_DELIMITER []
*T_UNIT 1 NS
*C_UNIT 1 PF
*R_UNIT 1 OHM
*L_UNIT 1 HENRY

*NAME_MAP
*1 arst_i
*2 net31
*3 net32
*4 net33
*5 net34
*6 net35
*7 net36
*8 net37
*9 scl_pad_i
*10 net38
*11 scl_padoen_o
*12 sda_pad_i
*13 net39
*14 sda_padoen_o
*17 wb_ack_o
*18 wb_adr_i[0]
*19 wb_adr_i[1]
*20 wb_adr_i[2]
*21 wb_clk_i
*22 wb_cyc_i
*23 wb_dat_i[0]
*24 wb_dat_i[1]
*25 wb_dat_i[2]
*26 wb_dat_i[3]
*27 wb_dat_i[4]
*28 wb_dat_i[5]
*29 wb_dat_i[6]
*30 wb_dat_i[7]
*31 wb_dat_o[0]
*32 wb_dat_o[1]
*33 wb_dat_o[2]
*34 wb_dat_o[3]
*35 wb_dat_o[4]
*36 wb_dat_o[5]
*37 wb_dat_o[6]
*38 wb_dat_o[7]
*39 wb_inta_o
*40 wb_rst_i
*41 wb_stb_i
*42 wb_we_i
*43 _0000_
*44 _0001_
*45 _0002_
*46 _0003_
*47 _0004_
*48 _0005_
*49 _0006_
*50 _0007_
*51 _0008_
*52 _0009_
*53 _0010_
*54 _0011_
*55 _0012_
*56 _0013_
*57 _0014_
*58 _0015_
*59 _0016_
*60 _0017_
*61 _0018_
*62 _0019_
*63 _0020_
*64 _0021_
*65 _0022_
*66 _0023_
*67 _0024_
*68 _0025_
*69 _0026_
*70 _0027_
*71 _0028_
*72 _0029_
*73 _0030_
*74 _0031_
*75 _0032_
*76 _0033_
*77 _0034_
*78 _0035_
*79 _0036_
*80 _0037_
*81 _0038_
*82 _0039_
*83 _0040_
*84 _0041_
*85 _0042_
*86 _0043_
*87 _0044_
*88 _0045_
*89 _0046_
*90 _0047_
*91 _0048_
*92 _0049_
*93 _0050_
*94 _0051_
*95 _0052_
*96 _0053_
*97 _0054_
*98 _0055_
*99 _0056_
*100 _0057_
*101 _0058_
*102 _0059_
*103 _0060_
*104 _0061_
*105 _0062_
*106 _0063_
*107 _0064_
*108 _0065_
*109 _0066_
*110 _0067_
*111 _0068_
*112 _0069_
*113 _0070_
*114 _0071_
*115 _0072_
*116 _0073_
*117 _0074_
*118 _0075_
*119 _0076_
*120 _0077_
*121 _0078_
*122 _0079_
*123 _0080_
*124 _0081_
*125 _0082_
*126 _0083_
*127 _0084_
*128 _0085_
*129 _0086_
*130 _0087_
*131 _0088_
*132 _0089_
*133 _0090_
*134 _0091_
*135 _0092_
*136 _0093_
*137 _0094_
*138 _0095_
*139 _0096_
*140 _0097_
*141 _0098_
*142 _0099_
*143 _0100_
*144 _0101_
*145 _0102_
*146 _0103_
*147 _0104_
*148 _0105_
*149 _0106_
*150 _0107_
*151 _0108_
*152 _0109_
*153 _0110_
*154 _0111_
*155 _0112_
*156 _0113_
*157 _0114_
*158 _0115_
*159 _0116_
*160 _0117_
*161 _0118_
*162 _0119_
*163 _0120_
*164 _0121_
*165 _0122_
*166 _0123_
*167 _0124_
*168 _0125_
*169 _0126_
*170 _0127_
*171 _0128_
*172 _0129_
*173 _0130_
*174 _0131_
*175 _0132_
*176 _0133_
*177 _0134_
*178 _0135_
*179 _0136_
*180 _0137_
*181 _0138_
*182 _0139_
*183 _0140_
*184 _0141_
*185 _0142_
*186 _0143_
*187 _0144_
*188 _0145_
*189 _0146_
*190 _0147_
*191 _0148_
*192 _0149_
*193 _0150_
*194 _0151_
*195 _0152_
*196 _0153_
*197 _0154_
*198 _0155_
*199 _0156_
*200 _0157_
*201 _0158_
*202 _0159_
*203 _0160_
*204 _0161_
*205 _0162_
*206 _0163_
*207 _0164_
*208 _0165_
*209 _0166_
*210 _0167_
*211 _0168_
*212 _0169_
*213 _0170_
*214 _0171_
*215 _0172_
*216 _0173_
*217 _0174_
*218 _0175_
*219 _0176_
*220 _0177_
*221 _0178_
*222 _0179_
*223 _0180_
*224 _0181_
*225 _0182_
*226 _0183_
*227 _0184_
*228 _0185_
*229 _0186_
*230 _0187_
*231 _0188_
*232 _0189_
*233 _0190_
*234 _0191_
*235 _0192_
*236 _0193_
*237 _0194_
*238 _0195_
*239 _0196_
*240 _0197_
*241 _0198_
*242 _0199_
*243 _0200_
*244 _0201_
*245 _0202_
*246 _0203_
*247 _0204_
*248 _0205_
*249 _0206_
*250 _0207_
*251 _0208_
*252 _0209_
*253 _0210_
*254 _0211_
*255 _0212_
*256 _0213_
*257 _0214_
*258 _0215_
*259 _0216_
*260 _0217_
*261 _0218_
*262 _0219_
*263 _0220_
*264 _0221_
*265 _0222_
*266 _0223_
*267 _0224_
*268 _0225_
*269 _0226_
*270 _0227_
*271 _0228_
*272 _0229_
*273 _0230_
*274 _0231_
*275 _0232_
*276 _0233_
*277 _0234_
*278 _0235_
*279 _0236_
*280 _0237_
*281 _0238_
*282 _0239_
*283 _0240_
*284 _0241_
*285 _0242_
*286 _0243_
*287 _0244_
*288 _0245_
*289 _0246_
*290 _0247_
*291 _0248_
*292 _0249_
*293 _0250_
*294 _0251_
*295 _0252_
*296 _0253_
*297 _0254_
*298 _0255_
*299 _0256_
*300 _0257_
*301 _0258_
*302 _0259_
*303 _0260_
*304 _0261_
*305 _0262_
*306 _0263_
*307 _0264_
*308 _0265_
*309 _0266_
*310 _0267_
*311 _0268_
*312 _0269_
*313 _0270_
*314 _0271_
*315 _0272_
*316 _0273_
*317 _0274_
*318 _0275_
*319 _0276_
*320 _0277_
*321 _0278_
*322 _0279_
*323 _0280_
*324 _0281_
*325 _0282_
*326 _0283_
*327 _0284_
*328 _0285_
*329 _0286_
*330 _0287_
*331 _0288_
*332 _0289_
*333 _0290_
*334 _0291_
*335 _0292_
*336 _0293_
*337 _0294_
*338 _0295_
*339 _0296_
*340 _0297_
*341 _0298_
*342 _0299_
*343 _0300_
*344 _0301_
*345 _0302_
*346 _0303_
*347 _0304_
*348 _0305_
*349 _0306_
*350 _0307_
*351 _0308_
*352 _0309_
*353 _0310_
*354 _0311_
*355 _0312_
*356 _0313_
*357 _0314_
*358 _0315_
*359 _0316_
*360 _0317_
*361 _0318_
*362 _0319_
*363 _0320_
*364 _0321_
*365 _0322_
*366 _0323_
*367 _0324_
*368 _0325_
*369 _0326_
*370 _0327_
*371 _0328_
*372 _0329_
*373 _0330_
*374 _0331_
*375 _0332_
*376 _0333_
*377 _0334_
*378 _0335_
*379 _0336_
*380 _0337_
*381 _0338_
*382 _0339_
*383 _0340_
*384 _0341_
*385 _0342_
*386 _0343_
*387 _0344_
*388 _0345_
*389 _0346_
*390 _0347_
*391 _0348_
*392 _0349_
*393 _0350_
*394 _0351_
*395 _0352_
*396 _0353_
*397 _0354_
*398 _0355_
*399 _0356_
*400 _0357_
*401 _0358_
*402 _0359_
*403 _0360_
*404 _0361_
*405 _0362_
*406 _0363_
*407 _0364_
*408 _0365_
*409 _0366_
*410 _0367_
*411 _0368_
*412 _0369_
*413 _0370_
*414 _0371_
*415 _0372_
*416 _0373_
*417 _0374_
*418 _0375_
*419 _0376_
*420 _0377_
*421 _0378_
*422 _0379_
*423 _0380_
*424 _0381_
*425 _0382_
*426 _0383_
*427 _0384_
*428 _0385_
*429 _0386_
*430 _0387_
*431 _0388_
*432 _0389_
*433 _0390_
*434 _0391_
*435 _0392_
*436 _0393_
*437 _0394_
*438 _0395_
*439 _0396_
*440 _0397_
*441 _0398_
*442 _0399_
*443 _0400_
*444 _0401_
*445 _0402_
*446 _0403_
*447 _0404_
*448 _0405_
*449 _0406_
*450 _0407_
*451 _0408_
*452 _0409_
*453 _0410_
*454 _0411_
*455 _0412_
*456 _0413_
*457 _0414_
*458 _0415_
*459 _0416_
*460 _0417_
*461 _0418_
*462 _0419_
*463 _0420_
*464 _0421_
*465 _0422_
*466 _0423_
*467 _0424_
*468 _0425_
*469 _0426_
*470 _0427_
*471 _0428_
*472 _0429_
*473 _0430_
*474 _0431_
*475 _0432_
*476 _0433_
*477 _0434_
*478 _0435_
*479 _0436_
*480 _0437_
*481 _0438_
*482 _0439_
*483 _0440_
*484 _0441_
*485 _0442_
*486 _0443_
*487 _0444_
*488 _0445_
*489 _0446_
*490 _0447_
*491 _0448_
*492 _0449_
*493 _0450_
*494 _0451_
*495 _0452_
*496 _0453_
*497 _0454_
*498 _0455_
*499 _0456_
*500 _0457_
*501 _0458_
*502 _0459_
*503 _0460_
*504 _0461_
*505 _0462_
*506 _0463_
*507 _0464_
*508 _0465_
*509 _0466_
*510 _0467_
*511 _0468_
*512 _0469_
*513 _0470_
*514 _0471_
*515 _0472_
*516 _0473_
*517 _0474_
*518 _0475_
*519 _0476_
*520 _0477_
*521 _0478_
*522 _0479_
*523 _0480_
*524 _0481_
*525 _0482_
*526 _0483_
*527 _0484_
*528 _0485_
*529 _0486_
*530 _0487_
*531 _0488_
*532 _0489_
*533 _0490_
*534 _0491_
*535 _0492_
*536 _0493_
*537 _0494_
*538 _0495_
*539 _0496_
*540 _0497_
*541 _0498_
*542 _0499_
*543 _0500_
*544 _0501_
*545 _0502_
*546 _0503_
*547 _0504_
*548 _0505_
*549 _0506_
*550 _0507_
*551 _0508_
*552 _0509_
*553 _0510_
*554 _0511_
*555 _0512_
*556 _0513_
*557 _0514_
*558 _0515_
*559 _0516_
*560 _0517_
*561 _0518_
*562 _0519_
*563 _0520_
*564 _0521_
*565 _0522_
*566 _0523_
*567 _0524_
*568 _0525_
*569 _0526_
*570 _0527_
*571 _0528_
*572 _0529_
*573 _0530_
*574 _0531_
*575 _0532_
*576 _0533_
*577 _0534_
*578 al
*579 byte_controller\.ack_in
*580 byte_controller\.ack_out
*581 byte_controller\.bit_controller\.al
*582 byte_controller\.bit_controller\.busy
*583 byte_controller\.bit_controller\.cSCL\[0\]
*584 byte_controller\.bit_controller\.cSCL\[1\]
*585 byte_controller\.bit_controller\.cSDA\[0\]
*586 byte_controller\.bit_controller\.cSDA\[1\]
*587 byte_controller\.bit_controller\.c_state\[0\]
*588 byte_controller\.bit_controller\.c_state\[10\]
*589 byte_controller\.bit_controller\.c_state\[11\]
*590 byte_controller\.bit_controller\.c_state\[12\]
*591 byte_controller\.bit_controller\.c_state\[13\]
*592 byte_controller\.bit_controller\.c_state\[14\]
*593 byte_controller\.bit_controller\.c_state\[15\]
*594 byte_controller\.bit_controller\.c_state\[16\]
*595 byte_controller\.bit_controller\.c_state\[1\]
*596 byte_controller\.bit_controller\.c_state\[2\]
*597 byte_controller\.bit_controller\.c_state\[3\]
*598 byte_controller\.bit_controller\.c_state\[4\]
*599 byte_controller\.bit_controller\.c_state\[5\]
*600 byte_controller\.bit_controller\.c_state\[6\]
*601 byte_controller\.bit_controller\.c_state\[7\]
*602 byte_controller\.bit_controller\.c_state\[8\]
*603 byte_controller\.bit_controller\.c_state\[9\]
*604 byte_controller\.bit_controller\.clk_cnt\[0\]
*605 byte_controller\.bit_controller\.clk_cnt\[10\]
*606 byte_controller\.bit_controller\.clk_cnt\[11\]
*607 byte_controller\.bit_controller\.clk_cnt\[12\]
*608 byte_controller\.bit_controller\.clk_cnt\[13\]
*609 byte_controller\.bit_controller\.clk_cnt\[14\]
*610 byte_controller\.bit_controller\.clk_cnt\[15\]
*611 byte_controller\.bit_controller\.clk_cnt\[1\]
*612 byte_controller\.bit_controller\.clk_cnt\[2\]
*613 byte_controller\.bit_controller\.clk_cnt\[3\]
*614 byte_controller\.bit_controller\.clk_cnt\[4\]
*615 byte_controller\.bit_controller\.clk_cnt\[5\]
*616 byte_controller\.bit_controller\.clk_cnt\[6\]
*617 byte_controller\.bit_controller\.clk_cnt\[7\]
*618 byte_controller\.bit_controller\.clk_cnt\[8\]
*619 byte_controller\.bit_controller\.clk_cnt\[9\]
*620 byte_controller\.bit_controller\.clk_en
*621 byte_controller\.bit_controller\.cmd_ack
*622 byte_controller\.bit_controller\.cmd_stop
*623 byte_controller\.bit_controller\.cnt\[0\]
*624 byte_controller\.bit_controller\.cnt\[10\]
*625 byte_controller\.bit_controller\.cnt\[11\]
*626 byte_controller\.bit_controller\.cnt\[12\]
*627 byte_controller\.bit_controller\.cnt\[13\]
*628 byte_controller\.bit_controller\.cnt\[14\]
*629 byte_controller\.bit_controller\.cnt\[15\]
*630 byte_controller\.bit_controller\.cnt\[1\]
*631 byte_controller\.bit_controller\.cnt\[2\]
*632 byte_controller\.bit_controller\.cnt\[3\]
*633 byte_controller\.bit_controller\.cnt\[4\]
*634 byte_controller\.bit_controller\.cnt\[5\]
*635 byte_controller\.bit_controller\.cnt\[6\]
*636 byte_controller\.bit_controller\.cnt\[7\]
*637 byte_controller\.bit_controller\.cnt\[8\]
*638 byte_controller\.bit_controller\.cnt\[9\]
*639 byte_controller\.bit_controller\.dSCL
*640 byte_controller\.bit_controller\.dSDA
*641 byte_controller\.bit_controller\.din
*642 byte_controller\.bit_controller\.dout
*643 byte_controller\.bit_controller\.dscl_oen
*644 byte_controller\.bit_controller\.ena
*645 byte_controller\.bit_controller\.fSCL\[0\]
*646 byte_controller\.bit_controller\.fSCL\[1\]
*647 byte_controller\.bit_controller\.fSCL\[2\]
*648 byte_controller\.bit_controller\.fSDA\[0\]
*649 byte_controller\.bit_controller\.fSDA\[1\]
*650 byte_controller\.bit_controller\.fSDA\[2\]
*651 byte_controller\.bit_controller\.filter_cnt\[0\]
*652 byte_controller\.bit_controller\.filter_cnt\[10\]
*653 byte_controller\.bit_controller\.filter_cnt\[11\]
*654 byte_controller\.bit_controller\.filter_cnt\[12\]
*655 byte_controller\.bit_controller\.filter_cnt\[13\]
*656 byte_controller\.bit_controller\.filter_cnt\[1\]
*657 byte_controller\.bit_controller\.filter_cnt\[2\]
*658 byte_controller\.bit_controller\.filter_cnt\[3\]
*659 byte_controller\.bit_controller\.filter_cnt\[4\]
*660 byte_controller\.bit_controller\.filter_cnt\[5\]
*661 byte_controller\.bit_controller\.filter_cnt\[6\]
*662 byte_controller\.bit_controller\.filter_cnt\[7\]
*663 byte_controller\.bit_controller\.filter_cnt\[8\]
*664 byte_controller\.bit_controller\.filter_cnt\[9\]
*665 byte_controller\.bit_controller\.sSCL
*666 byte_controller\.bit_controller\.sSDA
*667 byte_controller\.bit_controller\.sda_chk
*668 byte_controller\.bit_controller\.slave_wait
*669 byte_controller\.bit_controller\.sta_condition
*670 byte_controller\.bit_controller\.sto_condition
*671 byte_controller\.c_state\[0\]
*672 byte_controller\.c_state\[1\]
*673 byte_controller\.c_state\[2\]
*674 byte_controller\.c_state\[3\]
*675 byte_controller\.c_state\[4\]
*676 byte_controller\.c_state\[5\]
*677 byte_controller\.cmd_ack
*678 byte_controller\.core_cmd\[1\]
*679 byte_controller\.core_cmd\[2\]
*680 byte_controller\.core_cmd\[3\]
*681 byte_controller\.core_cmd\[4\]
*682 byte_controller\.dcnt\[0\]
*683 byte_controller\.dcnt\[1\]
*684 byte_controller\.dcnt\[2\]
*685 byte_controller\.din\[0\]
*686 byte_controller\.din\[1\]
*687 byte_controller\.din\[2\]
*688 byte_controller\.din\[3\]
*689 byte_controller\.din\[4\]
*690 byte_controller\.din\[5\]
*691 byte_controller\.din\[6\]
*692 byte_controller\.din\[7\]
*693 byte_controller\.dout\[0\]
*694 byte_controller\.dout\[1\]
*695 byte_controller\.dout\[2\]
*696 byte_controller\.dout\[3\]
*697 byte_controller\.dout\[4\]
*698 byte_controller\.dout\[5\]
*699 byte_controller\.dout\[6\]
*700 byte_controller\.dout\[7\]
*701 byte_controller\.ld
*702 byte_controller\.read
*703 byte_controller\.shift
*704 byte_controller\.start
*705 byte_controller\.stop
*706 byte_controller\.write
*707 clknet_0_wb_clk_i
*708 clknet_4_0_0_wb_clk_i
*709 clknet_4_10_0_wb_clk_i
*710 clknet_4_11_0_wb_clk_i
*711 clknet_4_12_0_wb_clk_i
*712 clknet_4_13_0_wb_clk_i
*713 clknet_4_14_0_wb_clk_i
*714 clknet_4_15_0_wb_clk_i
*715 clknet_4_1_0_wb_clk_i
*716 clknet_4_2_0_wb_clk_i
*717 clknet_4_3_0_wb_clk_i
*718 clknet_4_4_0_wb_clk_i
*719 clknet_4_5_0_wb_clk_i
*720 clknet_4_6_0_wb_clk_i
*721 clknet_4_7_0_wb_clk_i
*722 clknet_4_8_0_wb_clk_i
*723 clknet_4_9_0_wb_clk_i
*724 cr\[0\]
*725 cr\[1\]
*726 cr\[2\]
*727 ctr\[0\]
*728 ctr\[1\]
*729 ctr\[2\]
*730 ctr\[3\]
*731 ctr\[4\]
*732 ctr\[5\]
*733 ctr\[6\]
*734 irq_flag
*735 net1
*736 net10
*737 net11
*738 net12
*739 net13
*740 net14
*741 net15
*742 net16
*743 net17
*744 net18
*745 net19
*746 net2
*747 net20
*748 net21
*749 net22
*750 net23
*751 net24
*752 net25
*753 net26
*754 net27
*755 net28
*756 net29
*757 net3
*758 net30
*759 net4
*760 net5
*761 net6
*762 net7
*763 net8
*764 net9
*765 rxack
*766 tip
*767 ANTENNA_1
*768 ANTENNA_2
*769 FILLER_0_0_104
*770 FILLER_0_0_113
*771 FILLER_0_0_125
*772 FILLER_0_0_137
*773 FILLER_0_0_141
*774 FILLER_0_0_15
*775 FILLER_0_0_153
*776 FILLER_0_0_165
*777 FILLER_0_0_169
*778 FILLER_0_0_190
*779 FILLER_0_0_197
*780 FILLER_0_0_209
*781 FILLER_0_0_221
*782 FILLER_0_0_225
*783 FILLER_0_0_237
*784 FILLER_0_0_241
*785 FILLER_0_0_246
*786 FILLER_0_0_253
*787 FILLER_0_0_265
*788 FILLER_0_0_27
*789 FILLER_0_0_277
*790 FILLER_0_0_281
*791 FILLER_0_0_29
*792 FILLER_0_0_293
*793 FILLER_0_0_3
*794 FILLER_0_0_305
*795 FILLER_0_0_309
*796 FILLER_0_0_313
*797 FILLER_0_0_318
*798 FILLER_0_0_330
*799 FILLER_0_0_337
*800 FILLER_0_0_349
*801 FILLER_0_0_361
*802 FILLER_0_0_365
*803 FILLER_0_0_377
*804 FILLER_0_0_385
*805 FILLER_0_0_390
*806 FILLER_0_0_393
*807 FILLER_0_0_405
*808 FILLER_0_0_41
*809 FILLER_0_0_417
*810 FILLER_0_0_421
*811 FILLER_0_0_433
*812 FILLER_0_0_445
*813 FILLER_0_0_449
*814 FILLER_0_0_457
*815 FILLER_0_0_461
*816 FILLER_0_0_473
*817 FILLER_0_0_477
*818 FILLER_0_0_489
*819 FILLER_0_0_501
*820 FILLER_0_0_505
*821 FILLER_0_0_517
*822 FILLER_0_0_529
*823 FILLER_0_0_53
*824 FILLER_0_0_536
*825 FILLER_0_0_548
*826 FILLER_0_0_561
*827 FILLER_0_0_57
*828 FILLER_0_0_573
*829 FILLER_0_0_585
*830 FILLER_0_0_589
*831 FILLER_0_0_601
*832 FILLER_0_0_605
*833 FILLER_0_0_613
*834 FILLER_0_0_617
*835 FILLER_0_0_69
*836 FILLER_0_0_81
*837 FILLER_0_0_85
*838 FILLER_0_0_97
*839 FILLER_0_100_109
*840 FILLER_0_100_121
*841 FILLER_0_100_133
*842 FILLER_0_100_139
*843 FILLER_0_100_141
*844 FILLER_0_100_15
*845 FILLER_0_100_153
*846 FILLER_0_100_165
*847 FILLER_0_100_177
*848 FILLER_0_100_189
*849 FILLER_0_100_195
*850 FILLER_0_100_197
*851 FILLER_0_100_209
*852 FILLER_0_100_221
*853 FILLER_0_100_233
*854 FILLER_0_100_245
*855 FILLER_0_100_251
*856 FILLER_0_100_253
*857 FILLER_0_100_265
*858 FILLER_0_100_27
*859 FILLER_0_100_277
*860 FILLER_0_100_289
*861 FILLER_0_100_29
*862 FILLER_0_100_3
*863 FILLER_0_100_301
*864 FILLER_0_100_307
*865 FILLER_0_100_309
*866 FILLER_0_100_321
*867 FILLER_0_100_333
*868 FILLER_0_100_345
*869 FILLER_0_100_357
*870 FILLER_0_100_363
*871 FILLER_0_100_365
*872 FILLER_0_100_377
*873 FILLER_0_100_389
*874 FILLER_0_100_401
*875 FILLER_0_100_41
*876 FILLER_0_100_413
*877 FILLER_0_100_419
*878 FILLER_0_100_421
*879 FILLER_0_100_433
*880 FILLER_0_100_445
*881 FILLER_0_100_457
*882 FILLER_0_100_469
*883 FILLER_0_100_475
*884 FILLER_0_100_477
*885 FILLER_0_100_489
*886 FILLER_0_100_501
*887 FILLER_0_100_513
*888 FILLER_0_100_525
*889 FILLER_0_100_53
*890 FILLER_0_100_531
*891 FILLER_0_100_533
*892 FILLER_0_100_545
*893 FILLER_0_100_557
*894 FILLER_0_100_569
*895 FILLER_0_100_581
*896 FILLER_0_100_587
*897 FILLER_0_100_589
*898 FILLER_0_100_601
*899 FILLER_0_100_613
*900 FILLER_0_100_65
*901 FILLER_0_100_77
*902 FILLER_0_100_83
*903 FILLER_0_100_85
*904 FILLER_0_100_97
*905 FILLER_0_101_102
*906 FILLER_0_101_11
*907 FILLER_0_101_110
*908 FILLER_0_101_113
*909 FILLER_0_101_125
*910 FILLER_0_101_137
*911 FILLER_0_101_141
*912 FILLER_0_101_145
*913 FILLER_0_101_157
*914 FILLER_0_101_165
*915 FILLER_0_101_169
*916 FILLER_0_101_17
*917 FILLER_0_101_181
*918 FILLER_0_101_188
*919 FILLER_0_101_197
*920 FILLER_0_101_209
*921 FILLER_0_101_221
*922 FILLER_0_101_225
*923 FILLER_0_101_231
*924 FILLER_0_101_243
*925 FILLER_0_101_25
*926 FILLER_0_101_251
*927 FILLER_0_101_253
*928 FILLER_0_101_265
*929 FILLER_0_101_274
*930 FILLER_0_101_281
*931 FILLER_0_101_29
*932 FILLER_0_101_293
*933 FILLER_0_101_3
*934 FILLER_0_101_305
*935 FILLER_0_101_309
*936 FILLER_0_101_313
*937 FILLER_0_101_317
*938 FILLER_0_101_329
*939 FILLER_0_101_335
*940 FILLER_0_101_337
*941 FILLER_0_101_349
*942 FILLER_0_101_360
*943 FILLER_0_101_365
*944 FILLER_0_101_377
*945 FILLER_0_101_389
*946 FILLER_0_101_393
*947 FILLER_0_101_399
*948 FILLER_0_101_403
*949 FILLER_0_101_41
*950 FILLER_0_101_415
*951 FILLER_0_101_419
*952 FILLER_0_101_421
*953 FILLER_0_101_433
*954 FILLER_0_101_441
*955 FILLER_0_101_446
*956 FILLER_0_101_449
*957 FILLER_0_101_461
*958 FILLER_0_101_473
*959 FILLER_0_101_477
*960 FILLER_0_101_485
*961 FILLER_0_101_489
*962 FILLER_0_101_501
*963 FILLER_0_101_505
*964 FILLER_0_101_517
*965 FILLER_0_101_53
*966 FILLER_0_101_533
*967 FILLER_0_101_545
*968 FILLER_0_101_557
*969 FILLER_0_101_561
*970 FILLER_0_101_569
*971 FILLER_0_101_575
*972 FILLER_0_101_587
*973 FILLER_0_101_589
*974 FILLER_0_101_60
*975 FILLER_0_101_601
*976 FILLER_0_101_613
*977 FILLER_0_101_620
*978 FILLER_0_101_624
*979 FILLER_0_101_72
*980 FILLER_0_101_85
*981 FILLER_0_101_97
*982 FILLER_0_10_109
*983 FILLER_0_10_121
*984 FILLER_0_10_133
*985 FILLER_0_10_139
*986 FILLER_0_10_15
*987 FILLER_0_10_162
*988 FILLER_0_10_170
*989 FILLER_0_10_179
*990 FILLER_0_10_214
*991 FILLER_0_10_222
*992 FILLER_0_10_227
*993 FILLER_0_10_231
*994 FILLER_0_10_236
*995 FILLER_0_10_249
*996 FILLER_0_10_253
*997 FILLER_0_10_268
*998 FILLER_0_10_27
*999 FILLER_0_10_285
*1000 FILLER_0_10_29
*1001 FILLER_0_10_297
*1002 FILLER_0_10_3
*1003 FILLER_0_10_305
*1004 FILLER_0_10_309
*1005 FILLER_0_10_321
*1006 FILLER_0_10_333
*1007 FILLER_0_10_345
*1008 FILLER_0_10_357
*1009 FILLER_0_10_363
*1010 FILLER_0_10_365
*1011 FILLER_0_10_377
*1012 FILLER_0_10_389
*1013 FILLER_0_10_401
*1014 FILLER_0_10_41
*1015 FILLER_0_10_413
*1016 FILLER_0_10_419
*1017 FILLER_0_10_421
*1018 FILLER_0_10_433
*1019 FILLER_0_10_445
*1020 FILLER_0_10_457
*1021 FILLER_0_10_469
*1022 FILLER_0_10_475
*1023 FILLER_0_10_477
*1024 FILLER_0_10_489
*1025 FILLER_0_10_501
*1026 FILLER_0_10_513
*1027 FILLER_0_10_525
*1028 FILLER_0_10_53
*1029 FILLER_0_10_531
*1030 FILLER_0_10_533
*1031 FILLER_0_10_545
*1032 FILLER_0_10_557
*1033 FILLER_0_10_569
*1034 FILLER_0_10_581
*1035 FILLER_0_10_587
*1036 FILLER_0_10_589
*1037 FILLER_0_10_601
*1038 FILLER_0_10_613
*1039 FILLER_0_10_65
*1040 FILLER_0_10_77
*1041 FILLER_0_10_83
*1042 FILLER_0_10_85
*1043 FILLER_0_10_97
*1044 FILLER_0_11_105
*1045 FILLER_0_11_111
*1046 FILLER_0_11_113
*1047 FILLER_0_11_125
*1048 FILLER_0_11_137
*1049 FILLER_0_11_15
*1050 FILLER_0_11_160
*1051 FILLER_0_11_192
*1052 FILLER_0_11_214
*1053 FILLER_0_11_222
*1054 FILLER_0_11_225
*1055 FILLER_0_11_258
*1056 FILLER_0_11_27
*1057 FILLER_0_11_278
*1058 FILLER_0_11_281
*1059 FILLER_0_11_293
*1060 FILLER_0_11_3
*1061 FILLER_0_11_305
*1062 FILLER_0_11_317
*1063 FILLER_0_11_329
*1064 FILLER_0_11_335
*1065 FILLER_0_11_337
*1066 FILLER_0_11_349
*1067 FILLER_0_11_361
*1068 FILLER_0_11_373
*1069 FILLER_0_11_385
*1070 FILLER_0_11_39
*1071 FILLER_0_11_391
*1072 FILLER_0_11_393
*1073 FILLER_0_11_405
*1074 FILLER_0_11_417
*1075 FILLER_0_11_429
*1076 FILLER_0_11_441
*1077 FILLER_0_11_447
*1078 FILLER_0_11_449
*1079 FILLER_0_11_461
*1080 FILLER_0_11_473
*1081 FILLER_0_11_485
*1082 FILLER_0_11_497
*1083 FILLER_0_11_503
*1084 FILLER_0_11_505
*1085 FILLER_0_11_51
*1086 FILLER_0_11_517
*1087 FILLER_0_11_529
*1088 FILLER_0_11_541
*1089 FILLER_0_11_55
*1090 FILLER_0_11_553
*1091 FILLER_0_11_559
*1092 FILLER_0_11_561
*1093 FILLER_0_11_57
*1094 FILLER_0_11_573
*1095 FILLER_0_11_585
*1096 FILLER_0_11_597
*1097 FILLER_0_11_609
*1098 FILLER_0_11_615
*1099 FILLER_0_11_617
*1100 FILLER_0_11_69
*1101 FILLER_0_11_81
*1102 FILLER_0_11_93
*1103 FILLER_0_12_109
*1104 FILLER_0_12_121
*1105 FILLER_0_12_133
*1106 FILLER_0_12_139
*1107 FILLER_0_12_141
*1108 FILLER_0_12_15
*1109 FILLER_0_12_156
*1110 FILLER_0_12_168
*1111 FILLER_0_12_180
*1112 FILLER_0_12_192
*1113 FILLER_0_12_216
*1114 FILLER_0_12_229
*1115 FILLER_0_12_241
*1116 FILLER_0_12_263
*1117 FILLER_0_12_27
*1118 FILLER_0_12_275
*1119 FILLER_0_12_29
*1120 FILLER_0_12_299
*1121 FILLER_0_12_3
*1122 FILLER_0_12_307
*1123 FILLER_0_12_309
*1124 FILLER_0_12_321
*1125 FILLER_0_12_333
*1126 FILLER_0_12_345
*1127 FILLER_0_12_357
*1128 FILLER_0_12_363
*1129 FILLER_0_12_365
*1130 FILLER_0_12_377
*1131 FILLER_0_12_389
*1132 FILLER_0_12_401
*1133 FILLER_0_12_41
*1134 FILLER_0_12_413
*1135 FILLER_0_12_419
*1136 FILLER_0_12_421
*1137 FILLER_0_12_433
*1138 FILLER_0_12_445
*1139 FILLER_0_12_457
*1140 FILLER_0_12_469
*1141 FILLER_0_12_475
*1142 FILLER_0_12_477
*1143 FILLER_0_12_489
*1144 FILLER_0_12_501
*1145 FILLER_0_12_513
*1146 FILLER_0_12_525
*1147 FILLER_0_12_53
*1148 FILLER_0_12_531
*1149 FILLER_0_12_533
*1150 FILLER_0_12_545
*1151 FILLER_0_12_557
*1152 FILLER_0_12_569
*1153 FILLER_0_12_581
*1154 FILLER_0_12_587
*1155 FILLER_0_12_589
*1156 FILLER_0_12_601
*1157 FILLER_0_12_613
*1158 FILLER_0_12_65
*1159 FILLER_0_12_77
*1160 FILLER_0_12_83
*1161 FILLER_0_12_85
*1162 FILLER_0_12_97
*1163 FILLER_0_13_105
*1164 FILLER_0_13_111
*1165 FILLER_0_13_113
*1166 FILLER_0_13_125
*1167 FILLER_0_13_137
*1168 FILLER_0_13_149
*1169 FILLER_0_13_15
*1170 FILLER_0_13_161
*1171 FILLER_0_13_167
*1172 FILLER_0_13_169
*1173 FILLER_0_13_181
*1174 FILLER_0_13_193
*1175 FILLER_0_13_200
*1176 FILLER_0_13_212
*1177 FILLER_0_13_225
*1178 FILLER_0_13_237
*1179 FILLER_0_13_264
*1180 FILLER_0_13_27
*1181 FILLER_0_13_276
*1182 FILLER_0_13_281
*1183 FILLER_0_13_293
*1184 FILLER_0_13_3
*1185 FILLER_0_13_305
*1186 FILLER_0_13_317
*1187 FILLER_0_13_329
*1188 FILLER_0_13_335
*1189 FILLER_0_13_337
*1190 FILLER_0_13_349
*1191 FILLER_0_13_361
*1192 FILLER_0_13_373
*1193 FILLER_0_13_385
*1194 FILLER_0_13_39
*1195 FILLER_0_13_391
*1196 FILLER_0_13_393
*1197 FILLER_0_13_405
*1198 FILLER_0_13_417
*1199 FILLER_0_13_429
*1200 FILLER_0_13_441
*1201 FILLER_0_13_447
*1202 FILLER_0_13_449
*1203 FILLER_0_13_461
*1204 FILLER_0_13_473
*1205 FILLER_0_13_485
*1206 FILLER_0_13_497
*1207 FILLER_0_13_503
*1208 FILLER_0_13_505
*1209 FILLER_0_13_51
*1210 FILLER_0_13_517
*1211 FILLER_0_13_529
*1212 FILLER_0_13_541
*1213 FILLER_0_13_55
*1214 FILLER_0_13_553
*1215 FILLER_0_13_559
*1216 FILLER_0_13_561
*1217 FILLER_0_13_57
*1218 FILLER_0_13_573
*1219 FILLER_0_13_585
*1220 FILLER_0_13_597
*1221 FILLER_0_13_609
*1222 FILLER_0_13_615
*1223 FILLER_0_13_617
*1224 FILLER_0_13_69
*1225 FILLER_0_13_81
*1226 FILLER_0_13_93
*1227 FILLER_0_14_109
*1228 FILLER_0_14_121
*1229 FILLER_0_14_133
*1230 FILLER_0_14_139
*1231 FILLER_0_14_15
*1232 FILLER_0_14_162
*1233 FILLER_0_14_168
*1234 FILLER_0_14_176
*1235 FILLER_0_14_184
*1236 FILLER_0_14_189
*1237 FILLER_0_14_200
*1238 FILLER_0_14_212
*1239 FILLER_0_14_224
*1240 FILLER_0_14_236
*1241 FILLER_0_14_248
*1242 FILLER_0_14_256
*1243 FILLER_0_14_27
*1244 FILLER_0_14_270
*1245 FILLER_0_14_282
*1246 FILLER_0_14_29
*1247 FILLER_0_14_294
*1248 FILLER_0_14_3
*1249 FILLER_0_14_306
*1250 FILLER_0_14_309
*1251 FILLER_0_14_321
*1252 FILLER_0_14_333
*1253 FILLER_0_14_345
*1254 FILLER_0_14_357
*1255 FILLER_0_14_363
*1256 FILLER_0_14_365
*1257 FILLER_0_14_377
*1258 FILLER_0_14_389
*1259 FILLER_0_14_401
*1260 FILLER_0_14_41
*1261 FILLER_0_14_413
*1262 FILLER_0_14_419
*1263 FILLER_0_14_421
*1264 FILLER_0_14_433
*1265 FILLER_0_14_445
*1266 FILLER_0_14_457
*1267 FILLER_0_14_469
*1268 FILLER_0_14_475
*1269 FILLER_0_14_477
*1270 FILLER_0_14_489
*1271 FILLER_0_14_501
*1272 FILLER_0_14_513
*1273 FILLER_0_14_525
*1274 FILLER_0_14_53
*1275 FILLER_0_14_531
*1276 FILLER_0_14_533
*1277 FILLER_0_14_545
*1278 FILLER_0_14_557
*1279 FILLER_0_14_569
*1280 FILLER_0_14_581
*1281 FILLER_0_14_587
*1282 FILLER_0_14_589
*1283 FILLER_0_14_601
*1284 FILLER_0_14_613
*1285 FILLER_0_14_65
*1286 FILLER_0_14_77
*1287 FILLER_0_14_83
*1288 FILLER_0_14_85
*1289 FILLER_0_14_97
*1290 FILLER_0_15_105
*1291 FILLER_0_15_111
*1292 FILLER_0_15_113
*1293 FILLER_0_15_125
*1294 FILLER_0_15_15
*1295 FILLER_0_15_156
*1296 FILLER_0_15_169
*1297 FILLER_0_15_179
*1298 FILLER_0_15_199
*1299 FILLER_0_15_207
*1300 FILLER_0_15_211
*1301 FILLER_0_15_221
*1302 FILLER_0_15_232
*1303 FILLER_0_15_240
*1304 FILLER_0_15_266
*1305 FILLER_0_15_27
*1306 FILLER_0_15_279
*1307 FILLER_0_15_281
*1308 FILLER_0_15_293
*1309 FILLER_0_15_3
*1310 FILLER_0_15_305
*1311 FILLER_0_15_317
*1312 FILLER_0_15_329
*1313 FILLER_0_15_335
*1314 FILLER_0_15_337
*1315 FILLER_0_15_349
*1316 FILLER_0_15_361
*1317 FILLER_0_15_373
*1318 FILLER_0_15_385
*1319 FILLER_0_15_39
*1320 FILLER_0_15_391
*1321 FILLER_0_15_393
*1322 FILLER_0_15_405
*1323 FILLER_0_15_417
*1324 FILLER_0_15_429
*1325 FILLER_0_15_441
*1326 FILLER_0_15_447
*1327 FILLER_0_15_449
*1328 FILLER_0_15_461
*1329 FILLER_0_15_473
*1330 FILLER_0_15_485
*1331 FILLER_0_15_497
*1332 FILLER_0_15_503
*1333 FILLER_0_15_505
*1334 FILLER_0_15_51
*1335 FILLER_0_15_517
*1336 FILLER_0_15_529
*1337 FILLER_0_15_541
*1338 FILLER_0_15_55
*1339 FILLER_0_15_553
*1340 FILLER_0_15_559
*1341 FILLER_0_15_561
*1342 FILLER_0_15_57
*1343 FILLER_0_15_573
*1344 FILLER_0_15_585
*1345 FILLER_0_15_597
*1346 FILLER_0_15_609
*1347 FILLER_0_15_615
*1348 FILLER_0_15_617
*1349 FILLER_0_15_69
*1350 FILLER_0_15_81
*1351 FILLER_0_15_93
*1352 FILLER_0_16_109
*1353 FILLER_0_16_121
*1354 FILLER_0_16_133
*1355 FILLER_0_16_139
*1356 FILLER_0_16_15
*1357 FILLER_0_16_209
*1358 FILLER_0_16_218
*1359 FILLER_0_16_230
*1360 FILLER_0_16_243
*1361 FILLER_0_16_250
*1362 FILLER_0_16_253
*1363 FILLER_0_16_265
*1364 FILLER_0_16_27
*1365 FILLER_0_16_275
*1366 FILLER_0_16_29
*1367 FILLER_0_16_298
*1368 FILLER_0_16_3
*1369 FILLER_0_16_306
*1370 FILLER_0_16_309
*1371 FILLER_0_16_321
*1372 FILLER_0_16_333
*1373 FILLER_0_16_345
*1374 FILLER_0_16_357
*1375 FILLER_0_16_363
*1376 FILLER_0_16_365
*1377 FILLER_0_16_377
*1378 FILLER_0_16_389
*1379 FILLER_0_16_401
*1380 FILLER_0_16_41
*1381 FILLER_0_16_413
*1382 FILLER_0_16_419
*1383 FILLER_0_16_421
*1384 FILLER_0_16_433
*1385 FILLER_0_16_445
*1386 FILLER_0_16_457
*1387 FILLER_0_16_469
*1388 FILLER_0_16_475
*1389 FILLER_0_16_477
*1390 FILLER_0_16_489
*1391 FILLER_0_16_501
*1392 FILLER_0_16_513
*1393 FILLER_0_16_525
*1394 FILLER_0_16_53
*1395 FILLER_0_16_531
*1396 FILLER_0_16_533
*1397 FILLER_0_16_545
*1398 FILLER_0_16_557
*1399 FILLER_0_16_569
*1400 FILLER_0_16_581
*1401 FILLER_0_16_587
*1402 FILLER_0_16_589
*1403 FILLER_0_16_601
*1404 FILLER_0_16_613
*1405 FILLER_0_16_65
*1406 FILLER_0_16_77
*1407 FILLER_0_16_83
*1408 FILLER_0_16_85
*1409 FILLER_0_16_97
*1410 FILLER_0_17_105
*1411 FILLER_0_17_111
*1412 FILLER_0_17_113
*1413 FILLER_0_17_125
*1414 FILLER_0_17_137
*1415 FILLER_0_17_149
*1416 FILLER_0_17_161
*1417 FILLER_0_17_167
*1418 FILLER_0_17_19
*1419 FILLER_0_17_205
*1420 FILLER_0_17_223
*1421 FILLER_0_17_225
*1422 FILLER_0_17_233
*1423 FILLER_0_17_245
*1424 FILLER_0_17_257
*1425 FILLER_0_17_275
*1426 FILLER_0_17_279
*1427 FILLER_0_17_302
*1428 FILLER_0_17_31
*1429 FILLER_0_17_314
*1430 FILLER_0_17_326
*1431 FILLER_0_17_334
*1432 FILLER_0_17_337
*1433 FILLER_0_17_349
*1434 FILLER_0_17_361
*1435 FILLER_0_17_373
*1436 FILLER_0_17_385
*1437 FILLER_0_17_391
*1438 FILLER_0_17_393
*1439 FILLER_0_17_405
*1440 FILLER_0_17_417
*1441 FILLER_0_17_429
*1442 FILLER_0_17_43
*1443 FILLER_0_17_441
*1444 FILLER_0_17_447
*1445 FILLER_0_17_449
*1446 FILLER_0_17_461
*1447 FILLER_0_17_473
*1448 FILLER_0_17_485
*1449 FILLER_0_17_497
*1450 FILLER_0_17_503
*1451 FILLER_0_17_505
*1452 FILLER_0_17_517
*1453 FILLER_0_17_529
*1454 FILLER_0_17_541
*1455 FILLER_0_17_55
*1456 FILLER_0_17_553
*1457 FILLER_0_17_559
*1458 FILLER_0_17_561
*1459 FILLER_0_17_57
*1460 FILLER_0_17_573
*1461 FILLER_0_17_585
*1462 FILLER_0_17_597
*1463 FILLER_0_17_609
*1464 FILLER_0_17_615
*1465 FILLER_0_17_617
*1466 FILLER_0_17_621
*1467 FILLER_0_17_69
*1468 FILLER_0_17_7
*1469 FILLER_0_17_81
*1470 FILLER_0_17_93
*1471 FILLER_0_18_109
*1472 FILLER_0_18_138
*1473 FILLER_0_18_141
*1474 FILLER_0_18_15
*1475 FILLER_0_18_153
*1476 FILLER_0_18_165
*1477 FILLER_0_18_177
*1478 FILLER_0_18_189
*1479 FILLER_0_18_195
*1480 FILLER_0_18_197
*1481 FILLER_0_18_207
*1482 FILLER_0_18_237
*1483 FILLER_0_18_249
*1484 FILLER_0_18_253
*1485 FILLER_0_18_265
*1486 FILLER_0_18_27
*1487 FILLER_0_18_270
*1488 FILLER_0_18_288
*1489 FILLER_0_18_29
*1490 FILLER_0_18_3
*1491 FILLER_0_18_300
*1492 FILLER_0_18_309
*1493 FILLER_0_18_321
*1494 FILLER_0_18_335
*1495 FILLER_0_18_353
*1496 FILLER_0_18_361
*1497 FILLER_0_18_365
*1498 FILLER_0_18_377
*1499 FILLER_0_18_389
*1500 FILLER_0_18_401
*1501 FILLER_0_18_41
*1502 FILLER_0_18_413
*1503 FILLER_0_18_419
*1504 FILLER_0_18_421
*1505 FILLER_0_18_433
*1506 FILLER_0_18_445
*1507 FILLER_0_18_457
*1508 FILLER_0_18_469
*1509 FILLER_0_18_475
*1510 FILLER_0_18_477
*1511 FILLER_0_18_489
*1512 FILLER_0_18_501
*1513 FILLER_0_18_513
*1514 FILLER_0_18_525
*1515 FILLER_0_18_53
*1516 FILLER_0_18_531
*1517 FILLER_0_18_533
*1518 FILLER_0_18_545
*1519 FILLER_0_18_557
*1520 FILLER_0_18_569
*1521 FILLER_0_18_581
*1522 FILLER_0_18_587
*1523 FILLER_0_18_589
*1524 FILLER_0_18_601
*1525 FILLER_0_18_613
*1526 FILLER_0_18_65
*1527 FILLER_0_18_77
*1528 FILLER_0_18_83
*1529 FILLER_0_18_85
*1530 FILLER_0_18_97
*1531 FILLER_0_19_105
*1532 FILLER_0_19_111
*1533 FILLER_0_19_113
*1534 FILLER_0_19_125
*1535 FILLER_0_19_15
*1536 FILLER_0_19_150
*1537 FILLER_0_19_162
*1538 FILLER_0_19_169
*1539 FILLER_0_19_181
*1540 FILLER_0_19_193
*1541 FILLER_0_19_205
*1542 FILLER_0_19_217
*1543 FILLER_0_19_223
*1544 FILLER_0_19_236
*1545 FILLER_0_19_248
*1546 FILLER_0_19_256
*1547 FILLER_0_19_268
*1548 FILLER_0_19_27
*1549 FILLER_0_19_274
*1550 FILLER_0_19_278
*1551 FILLER_0_19_281
*1552 FILLER_0_19_293
*1553 FILLER_0_19_3
*1554 FILLER_0_19_305
*1555 FILLER_0_19_317
*1556 FILLER_0_19_329
*1557 FILLER_0_19_335
*1558 FILLER_0_19_337
*1559 FILLER_0_19_349
*1560 FILLER_0_19_361
*1561 FILLER_0_19_373
*1562 FILLER_0_19_385
*1563 FILLER_0_19_39
*1564 FILLER_0_19_391
*1565 FILLER_0_19_393
*1566 FILLER_0_19_405
*1567 FILLER_0_19_417
*1568 FILLER_0_19_429
*1569 FILLER_0_19_441
*1570 FILLER_0_19_447
*1571 FILLER_0_19_449
*1572 FILLER_0_19_461
*1573 FILLER_0_19_473
*1574 FILLER_0_19_485
*1575 FILLER_0_19_497
*1576 FILLER_0_19_503
*1577 FILLER_0_19_505
*1578 FILLER_0_19_51
*1579 FILLER_0_19_517
*1580 FILLER_0_19_529
*1581 FILLER_0_19_541
*1582 FILLER_0_19_55
*1583 FILLER_0_19_553
*1584 FILLER_0_19_559
*1585 FILLER_0_19_561
*1586 FILLER_0_19_57
*1587 FILLER_0_19_573
*1588 FILLER_0_19_585
*1589 FILLER_0_19_597
*1590 FILLER_0_19_609
*1591 FILLER_0_19_615
*1592 FILLER_0_19_617
*1593 FILLER_0_19_69
*1594 FILLER_0_19_81
*1595 FILLER_0_19_93
*1596 FILLER_0_1_105
*1597 FILLER_0_1_111
*1598 FILLER_0_1_113
*1599 FILLER_0_1_125
*1600 FILLER_0_1_137
*1601 FILLER_0_1_149
*1602 FILLER_0_1_15
*1603 FILLER_0_1_161
*1604 FILLER_0_1_167
*1605 FILLER_0_1_169
*1606 FILLER_0_1_181
*1607 FILLER_0_1_193
*1608 FILLER_0_1_205
*1609 FILLER_0_1_217
*1610 FILLER_0_1_223
*1611 FILLER_0_1_225
*1612 FILLER_0_1_237
*1613 FILLER_0_1_249
*1614 FILLER_0_1_261
*1615 FILLER_0_1_27
*1616 FILLER_0_1_273
*1617 FILLER_0_1_279
*1618 FILLER_0_1_281
*1619 FILLER_0_1_293
*1620 FILLER_0_1_3
*1621 FILLER_0_1_305
*1622 FILLER_0_1_317
*1623 FILLER_0_1_329
*1624 FILLER_0_1_335
*1625 FILLER_0_1_337
*1626 FILLER_0_1_349
*1627 FILLER_0_1_361
*1628 FILLER_0_1_373
*1629 FILLER_0_1_385
*1630 FILLER_0_1_39
*1631 FILLER_0_1_391
*1632 FILLER_0_1_393
*1633 FILLER_0_1_405
*1634 FILLER_0_1_417
*1635 FILLER_0_1_429
*1636 FILLER_0_1_441
*1637 FILLER_0_1_447
*1638 FILLER_0_1_449
*1639 FILLER_0_1_461
*1640 FILLER_0_1_473
*1641 FILLER_0_1_485
*1642 FILLER_0_1_497
*1643 FILLER_0_1_503
*1644 FILLER_0_1_505
*1645 FILLER_0_1_51
*1646 FILLER_0_1_517
*1647 FILLER_0_1_529
*1648 FILLER_0_1_541
*1649 FILLER_0_1_55
*1650 FILLER_0_1_553
*1651 FILLER_0_1_559
*1652 FILLER_0_1_561
*1653 FILLER_0_1_57
*1654 FILLER_0_1_573
*1655 FILLER_0_1_585
*1656 FILLER_0_1_597
*1657 FILLER_0_1_609
*1658 FILLER_0_1_615
*1659 FILLER_0_1_617
*1660 FILLER_0_1_69
*1661 FILLER_0_1_81
*1662 FILLER_0_1_93
*1663 FILLER_0_20_119
*1664 FILLER_0_20_131
*1665 FILLER_0_20_135
*1666 FILLER_0_20_15
*1667 FILLER_0_20_152
*1668 FILLER_0_20_163
*1669 FILLER_0_20_178
*1670 FILLER_0_20_190
*1671 FILLER_0_20_197
*1672 FILLER_0_20_209
*1673 FILLER_0_20_219
*1674 FILLER_0_20_243
*1675 FILLER_0_20_251
*1676 FILLER_0_20_253
*1677 FILLER_0_20_27
*1678 FILLER_0_20_29
*1679 FILLER_0_20_292
*1680 FILLER_0_20_3
*1681 FILLER_0_20_304
*1682 FILLER_0_20_309
*1683 FILLER_0_20_321
*1684 FILLER_0_20_333
*1685 FILLER_0_20_345
*1686 FILLER_0_20_357
*1687 FILLER_0_20_363
*1688 FILLER_0_20_365
*1689 FILLER_0_20_377
*1690 FILLER_0_20_389
*1691 FILLER_0_20_401
*1692 FILLER_0_20_41
*1693 FILLER_0_20_413
*1694 FILLER_0_20_419
*1695 FILLER_0_20_421
*1696 FILLER_0_20_433
*1697 FILLER_0_20_445
*1698 FILLER_0_20_457
*1699 FILLER_0_20_469
*1700 FILLER_0_20_475
*1701 FILLER_0_20_477
*1702 FILLER_0_20_489
*1703 FILLER_0_20_501
*1704 FILLER_0_20_513
*1705 FILLER_0_20_525
*1706 FILLER_0_20_53
*1707 FILLER_0_20_531
*1708 FILLER_0_20_533
*1709 FILLER_0_20_545
*1710 FILLER_0_20_557
*1711 FILLER_0_20_569
*1712 FILLER_0_20_581
*1713 FILLER_0_20_587
*1714 FILLER_0_20_589
*1715 FILLER_0_20_601
*1716 FILLER_0_20_613
*1717 FILLER_0_20_65
*1718 FILLER_0_20_77
*1719 FILLER_0_20_83
*1720 FILLER_0_20_85
*1721 FILLER_0_20_97
*1722 FILLER_0_21_106
*1723 FILLER_0_21_113
*1724 FILLER_0_21_125
*1725 FILLER_0_21_133
*1726 FILLER_0_21_142
*1727 FILLER_0_21_15
*1728 FILLER_0_21_164
*1729 FILLER_0_21_169
*1730 FILLER_0_21_192
*1731 FILLER_0_21_242
*1732 FILLER_0_21_248
*1733 FILLER_0_21_257
*1734 FILLER_0_21_265
*1735 FILLER_0_21_27
*1736 FILLER_0_21_274
*1737 FILLER_0_21_292
*1738 FILLER_0_21_3
*1739 FILLER_0_21_304
*1740 FILLER_0_21_316
*1741 FILLER_0_21_328
*1742 FILLER_0_21_337
*1743 FILLER_0_21_349
*1744 FILLER_0_21_361
*1745 FILLER_0_21_373
*1746 FILLER_0_21_385
*1747 FILLER_0_21_39
*1748 FILLER_0_21_391
*1749 FILLER_0_21_393
*1750 FILLER_0_21_405
*1751 FILLER_0_21_417
*1752 FILLER_0_21_429
*1753 FILLER_0_21_441
*1754 FILLER_0_21_447
*1755 FILLER_0_21_449
*1756 FILLER_0_21_461
*1757 FILLER_0_21_473
*1758 FILLER_0_21_485
*1759 FILLER_0_21_497
*1760 FILLER_0_21_503
*1761 FILLER_0_21_505
*1762 FILLER_0_21_51
*1763 FILLER_0_21_517
*1764 FILLER_0_21_529
*1765 FILLER_0_21_541
*1766 FILLER_0_21_55
*1767 FILLER_0_21_553
*1768 FILLER_0_21_559
*1769 FILLER_0_21_561
*1770 FILLER_0_21_57
*1771 FILLER_0_21_573
*1772 FILLER_0_21_585
*1773 FILLER_0_21_597
*1774 FILLER_0_21_609
*1775 FILLER_0_21_615
*1776 FILLER_0_21_617
*1777 FILLER_0_21_69
*1778 FILLER_0_21_81
*1779 FILLER_0_21_85
*1780 FILLER_0_22_116
*1781 FILLER_0_22_126
*1782 FILLER_0_22_138
*1783 FILLER_0_22_15
*1784 FILLER_0_22_164
*1785 FILLER_0_22_193
*1786 FILLER_0_22_197
*1787 FILLER_0_22_239
*1788 FILLER_0_22_245
*1789 FILLER_0_22_253
*1790 FILLER_0_22_265
*1791 FILLER_0_22_27
*1792 FILLER_0_22_287
*1793 FILLER_0_22_29
*1794 FILLER_0_22_299
*1795 FILLER_0_22_3
*1796 FILLER_0_22_307
*1797 FILLER_0_22_309
*1798 FILLER_0_22_321
*1799 FILLER_0_22_333
*1800 FILLER_0_22_345
*1801 FILLER_0_22_357
*1802 FILLER_0_22_363
*1803 FILLER_0_22_365
*1804 FILLER_0_22_377
*1805 FILLER_0_22_389
*1806 FILLER_0_22_401
*1807 FILLER_0_22_41
*1808 FILLER_0_22_413
*1809 FILLER_0_22_419
*1810 FILLER_0_22_421
*1811 FILLER_0_22_433
*1812 FILLER_0_22_445
*1813 FILLER_0_22_457
*1814 FILLER_0_22_469
*1815 FILLER_0_22_475
*1816 FILLER_0_22_477
*1817 FILLER_0_22_489
*1818 FILLER_0_22_501
*1819 FILLER_0_22_513
*1820 FILLER_0_22_525
*1821 FILLER_0_22_53
*1822 FILLER_0_22_531
*1823 FILLER_0_22_533
*1824 FILLER_0_22_545
*1825 FILLER_0_22_557
*1826 FILLER_0_22_569
*1827 FILLER_0_22_581
*1828 FILLER_0_22_587
*1829 FILLER_0_22_589
*1830 FILLER_0_22_601
*1831 FILLER_0_22_613
*1832 FILLER_0_22_65
*1833 FILLER_0_22_77
*1834 FILLER_0_22_83
*1835 FILLER_0_22_85
*1836 FILLER_0_23_111
*1837 FILLER_0_23_133
*1838 FILLER_0_23_15
*1839 FILLER_0_23_155
*1840 FILLER_0_23_167
*1841 FILLER_0_23_169
*1842 FILLER_0_23_183
*1843 FILLER_0_23_189
*1844 FILLER_0_23_221
*1845 FILLER_0_23_237
*1846 FILLER_0_23_27
*1847 FILLER_0_23_272
*1848 FILLER_0_23_278
*1849 FILLER_0_23_281
*1850 FILLER_0_23_293
*1851 FILLER_0_23_3
*1852 FILLER_0_23_305
*1853 FILLER_0_23_317
*1854 FILLER_0_23_329
*1855 FILLER_0_23_335
*1856 FILLER_0_23_337
*1857 FILLER_0_23_349
*1858 FILLER_0_23_361
*1859 FILLER_0_23_373
*1860 FILLER_0_23_385
*1861 FILLER_0_23_39
*1862 FILLER_0_23_391
*1863 FILLER_0_23_393
*1864 FILLER_0_23_405
*1865 FILLER_0_23_417
*1866 FILLER_0_23_429
*1867 FILLER_0_23_441
*1868 FILLER_0_23_447
*1869 FILLER_0_23_449
*1870 FILLER_0_23_461
*1871 FILLER_0_23_473
*1872 FILLER_0_23_485
*1873 FILLER_0_23_497
*1874 FILLER_0_23_503
*1875 FILLER_0_23_505
*1876 FILLER_0_23_51
*1877 FILLER_0_23_517
*1878 FILLER_0_23_529
*1879 FILLER_0_23_541
*1880 FILLER_0_23_55
*1881 FILLER_0_23_553
*1882 FILLER_0_23_559
*1883 FILLER_0_23_561
*1884 FILLER_0_23_57
*1885 FILLER_0_23_573
*1886 FILLER_0_23_585
*1887 FILLER_0_23_597
*1888 FILLER_0_23_609
*1889 FILLER_0_23_615
*1890 FILLER_0_23_617
*1891 FILLER_0_23_69
*1892 FILLER_0_23_77
*1893 FILLER_0_24_109
*1894 FILLER_0_24_121
*1895 FILLER_0_24_130
*1896 FILLER_0_24_138
*1897 FILLER_0_24_146
*1898 FILLER_0_24_15
*1899 FILLER_0_24_158
*1900 FILLER_0_24_164
*1901 FILLER_0_24_168
*1902 FILLER_0_24_180
*1903 FILLER_0_24_192
*1904 FILLER_0_24_197
*1905 FILLER_0_24_208
*1906 FILLER_0_24_220
*1907 FILLER_0_24_224
*1908 FILLER_0_24_229
*1909 FILLER_0_24_241
*1910 FILLER_0_24_249
*1911 FILLER_0_24_253
*1912 FILLER_0_24_265
*1913 FILLER_0_24_27
*1914 FILLER_0_24_29
*1915 FILLER_0_24_291
*1916 FILLER_0_24_3
*1917 FILLER_0_24_303
*1918 FILLER_0_24_307
*1919 FILLER_0_24_309
*1920 FILLER_0_24_321
*1921 FILLER_0_24_333
*1922 FILLER_0_24_345
*1923 FILLER_0_24_357
*1924 FILLER_0_24_363
*1925 FILLER_0_24_365
*1926 FILLER_0_24_377
*1927 FILLER_0_24_389
*1928 FILLER_0_24_401
*1929 FILLER_0_24_41
*1930 FILLER_0_24_413
*1931 FILLER_0_24_419
*1932 FILLER_0_24_421
*1933 FILLER_0_24_433
*1934 FILLER_0_24_445
*1935 FILLER_0_24_457
*1936 FILLER_0_24_469
*1937 FILLER_0_24_475
*1938 FILLER_0_24_477
*1939 FILLER_0_24_489
*1940 FILLER_0_24_501
*1941 FILLER_0_24_513
*1942 FILLER_0_24_525
*1943 FILLER_0_24_53
*1944 FILLER_0_24_531
*1945 FILLER_0_24_533
*1946 FILLER_0_24_545
*1947 FILLER_0_24_557
*1948 FILLER_0_24_569
*1949 FILLER_0_24_581
*1950 FILLER_0_24_587
*1951 FILLER_0_24_589
*1952 FILLER_0_24_601
*1953 FILLER_0_24_613
*1954 FILLER_0_24_65
*1955 FILLER_0_24_77
*1956 FILLER_0_24_83
*1957 FILLER_0_24_85
*1958 FILLER_0_24_89
*1959 FILLER_0_25_111
*1960 FILLER_0_25_113
*1961 FILLER_0_25_117
*1962 FILLER_0_25_125
*1963 FILLER_0_25_15
*1964 FILLER_0_25_157
*1965 FILLER_0_25_169
*1966 FILLER_0_25_182
*1967 FILLER_0_25_194
*1968 FILLER_0_25_198
*1969 FILLER_0_25_208
*1970 FILLER_0_25_220
*1971 FILLER_0_25_225
*1972 FILLER_0_25_237
*1973 FILLER_0_25_245
*1974 FILLER_0_25_257
*1975 FILLER_0_25_269
*1976 FILLER_0_25_27
*1977 FILLER_0_25_3
*1978 FILLER_0_25_302
*1979 FILLER_0_25_314
*1980 FILLER_0_25_326
*1981 FILLER_0_25_334
*1982 FILLER_0_25_337
*1983 FILLER_0_25_349
*1984 FILLER_0_25_361
*1985 FILLER_0_25_373
*1986 FILLER_0_25_385
*1987 FILLER_0_25_39
*1988 FILLER_0_25_391
*1989 FILLER_0_25_393
*1990 FILLER_0_25_405
*1991 FILLER_0_25_417
*1992 FILLER_0_25_429
*1993 FILLER_0_25_441
*1994 FILLER_0_25_447
*1995 FILLER_0_25_449
*1996 FILLER_0_25_461
*1997 FILLER_0_25_473
*1998 FILLER_0_25_485
*1999 FILLER_0_25_497
*2000 FILLER_0_25_503
*2001 FILLER_0_25_505
*2002 FILLER_0_25_51
*2003 FILLER_0_25_517
*2004 FILLER_0_25_529
*2005 FILLER_0_25_541
*2006 FILLER_0_25_55
*2007 FILLER_0_25_553
*2008 FILLER_0_25_559
*2009 FILLER_0_25_561
*2010 FILLER_0_25_57
*2011 FILLER_0_25_573
*2012 FILLER_0_25_585
*2013 FILLER_0_25_597
*2014 FILLER_0_25_609
*2015 FILLER_0_25_615
*2016 FILLER_0_25_617
*2017 FILLER_0_25_69
*2018 FILLER_0_25_81
*2019 FILLER_0_25_99
*2020 FILLER_0_26_105
*2021 FILLER_0_26_117
*2022 FILLER_0_26_129
*2023 FILLER_0_26_136
*2024 FILLER_0_26_15
*2025 FILLER_0_26_182
*2026 FILLER_0_26_194
*2027 FILLER_0_26_197
*2028 FILLER_0_26_209
*2029 FILLER_0_26_221
*2030 FILLER_0_26_227
*2031 FILLER_0_26_234
*2032 FILLER_0_26_246
*2033 FILLER_0_26_27
*2034 FILLER_0_26_274
*2035 FILLER_0_26_278
*2036 FILLER_0_26_29
*2037 FILLER_0_26_295
*2038 FILLER_0_26_3
*2039 FILLER_0_26_307
*2040 FILLER_0_26_309
*2041 FILLER_0_26_321
*2042 FILLER_0_26_333
*2043 FILLER_0_26_345
*2044 FILLER_0_26_357
*2045 FILLER_0_26_363
*2046 FILLER_0_26_365
*2047 FILLER_0_26_377
*2048 FILLER_0_26_389
*2049 FILLER_0_26_401
*2050 FILLER_0_26_41
*2051 FILLER_0_26_413
*2052 FILLER_0_26_419
*2053 FILLER_0_26_421
*2054 FILLER_0_26_433
*2055 FILLER_0_26_445
*2056 FILLER_0_26_457
*2057 FILLER_0_26_469
*2058 FILLER_0_26_475
*2059 FILLER_0_26_477
*2060 FILLER_0_26_489
*2061 FILLER_0_26_501
*2062 FILLER_0_26_513
*2063 FILLER_0_26_525
*2064 FILLER_0_26_53
*2065 FILLER_0_26_531
*2066 FILLER_0_26_533
*2067 FILLER_0_26_545
*2068 FILLER_0_26_557
*2069 FILLER_0_26_569
*2070 FILLER_0_26_581
*2071 FILLER_0_26_587
*2072 FILLER_0_26_589
*2073 FILLER_0_26_601
*2074 FILLER_0_26_613
*2075 FILLER_0_26_65
*2076 FILLER_0_26_77
*2077 FILLER_0_26_83
*2078 FILLER_0_26_85
*2079 FILLER_0_27_109
*2080 FILLER_0_27_119
*2081 FILLER_0_27_134
*2082 FILLER_0_27_15
*2083 FILLER_0_27_153
*2084 FILLER_0_27_164
*2085 FILLER_0_27_197
*2086 FILLER_0_27_220
*2087 FILLER_0_27_225
*2088 FILLER_0_27_237
*2089 FILLER_0_27_249
*2090 FILLER_0_27_27
*2091 FILLER_0_27_279
*2092 FILLER_0_27_281
*2093 FILLER_0_27_293
*2094 FILLER_0_27_3
*2095 FILLER_0_27_305
*2096 FILLER_0_27_317
*2097 FILLER_0_27_329
*2098 FILLER_0_27_335
*2099 FILLER_0_27_337
*2100 FILLER_0_27_349
*2101 FILLER_0_27_361
*2102 FILLER_0_27_373
*2103 FILLER_0_27_385
*2104 FILLER_0_27_39
*2105 FILLER_0_27_391
*2106 FILLER_0_27_393
*2107 FILLER_0_27_405
*2108 FILLER_0_27_417
*2109 FILLER_0_27_429
*2110 FILLER_0_27_441
*2111 FILLER_0_27_447
*2112 FILLER_0_27_449
*2113 FILLER_0_27_461
*2114 FILLER_0_27_473
*2115 FILLER_0_27_485
*2116 FILLER_0_27_497
*2117 FILLER_0_27_503
*2118 FILLER_0_27_505
*2119 FILLER_0_27_51
*2120 FILLER_0_27_517
*2121 FILLER_0_27_529
*2122 FILLER_0_27_541
*2123 FILLER_0_27_55
*2124 FILLER_0_27_553
*2125 FILLER_0_27_559
*2126 FILLER_0_27_561
*2127 FILLER_0_27_57
*2128 FILLER_0_27_573
*2129 FILLER_0_27_585
*2130 FILLER_0_27_597
*2131 FILLER_0_27_609
*2132 FILLER_0_27_615
*2133 FILLER_0_27_617
*2134 FILLER_0_27_69
*2135 FILLER_0_27_77
*2136 FILLER_0_28_136
*2137 FILLER_0_28_141
*2138 FILLER_0_28_15
*2139 FILLER_0_28_151
*2140 FILLER_0_28_165
*2141 FILLER_0_28_186
*2142 FILLER_0_28_194
*2143 FILLER_0_28_197
*2144 FILLER_0_28_221
*2145 FILLER_0_28_247
*2146 FILLER_0_28_251
*2147 FILLER_0_28_253
*2148 FILLER_0_28_259
*2149 FILLER_0_28_263
*2150 FILLER_0_28_27
*2151 FILLER_0_28_288
*2152 FILLER_0_28_29
*2153 FILLER_0_28_3
*2154 FILLER_0_28_300
*2155 FILLER_0_28_309
*2156 FILLER_0_28_321
*2157 FILLER_0_28_333
*2158 FILLER_0_28_345
*2159 FILLER_0_28_357
*2160 FILLER_0_28_363
*2161 FILLER_0_28_365
*2162 FILLER_0_28_377
*2163 FILLER_0_28_389
*2164 FILLER_0_28_401
*2165 FILLER_0_28_41
*2166 FILLER_0_28_413
*2167 FILLER_0_28_419
*2168 FILLER_0_28_421
*2169 FILLER_0_28_433
*2170 FILLER_0_28_445
*2171 FILLER_0_28_457
*2172 FILLER_0_28_469
*2173 FILLER_0_28_475
*2174 FILLER_0_28_477
*2175 FILLER_0_28_489
*2176 FILLER_0_28_501
*2177 FILLER_0_28_513
*2178 FILLER_0_28_525
*2179 FILLER_0_28_53
*2180 FILLER_0_28_531
*2181 FILLER_0_28_533
*2182 FILLER_0_28_545
*2183 FILLER_0_28_557
*2184 FILLER_0_28_569
*2185 FILLER_0_28_581
*2186 FILLER_0_28_587
*2187 FILLER_0_28_589
*2188 FILLER_0_28_601
*2189 FILLER_0_28_613
*2190 FILLER_0_28_65
*2191 FILLER_0_28_77
*2192 FILLER_0_28_83
*2193 FILLER_0_28_85
*2194 FILLER_0_29_105
*2195 FILLER_0_29_111
*2196 FILLER_0_29_113
*2197 FILLER_0_29_130
*2198 FILLER_0_29_15
*2199 FILLER_0_29_153
*2200 FILLER_0_29_163
*2201 FILLER_0_29_167
*2202 FILLER_0_29_169
*2203 FILLER_0_29_176
*2204 FILLER_0_29_180
*2205 FILLER_0_29_216
*2206 FILLER_0_29_221
*2207 FILLER_0_29_225
*2208 FILLER_0_29_257
*2209 FILLER_0_29_269
*2210 FILLER_0_29_27
*2211 FILLER_0_29_3
*2212 FILLER_0_29_301
*2213 FILLER_0_29_326
*2214 FILLER_0_29_334
*2215 FILLER_0_29_343
*2216 FILLER_0_29_355
*2217 FILLER_0_29_367
*2218 FILLER_0_29_379
*2219 FILLER_0_29_39
*2220 FILLER_0_29_391
*2221 FILLER_0_29_393
*2222 FILLER_0_29_405
*2223 FILLER_0_29_417
*2224 FILLER_0_29_429
*2225 FILLER_0_29_441
*2226 FILLER_0_29_447
*2227 FILLER_0_29_449
*2228 FILLER_0_29_461
*2229 FILLER_0_29_473
*2230 FILLER_0_29_485
*2231 FILLER_0_29_497
*2232 FILLER_0_29_503
*2233 FILLER_0_29_505
*2234 FILLER_0_29_51
*2235 FILLER_0_29_517
*2236 FILLER_0_29_529
*2237 FILLER_0_29_541
*2238 FILLER_0_29_55
*2239 FILLER_0_29_553
*2240 FILLER_0_29_559
*2241 FILLER_0_29_561
*2242 FILLER_0_29_57
*2243 FILLER_0_29_573
*2244 FILLER_0_29_585
*2245 FILLER_0_29_597
*2246 FILLER_0_29_609
*2247 FILLER_0_29_615
*2248 FILLER_0_29_617
*2249 FILLER_0_29_69
*2250 FILLER_0_29_81
*2251 FILLER_0_29_89
*2252 FILLER_0_2_109
*2253 FILLER_0_2_121
*2254 FILLER_0_2_133
*2255 FILLER_0_2_139
*2256 FILLER_0_2_141
*2257 FILLER_0_2_15
*2258 FILLER_0_2_153
*2259 FILLER_0_2_165
*2260 FILLER_0_2_177
*2261 FILLER_0_2_189
*2262 FILLER_0_2_195
*2263 FILLER_0_2_197
*2264 FILLER_0_2_209
*2265 FILLER_0_2_221
*2266 FILLER_0_2_233
*2267 FILLER_0_2_245
*2268 FILLER_0_2_251
*2269 FILLER_0_2_253
*2270 FILLER_0_2_265
*2271 FILLER_0_2_27
*2272 FILLER_0_2_277
*2273 FILLER_0_2_289
*2274 FILLER_0_2_29
*2275 FILLER_0_2_3
*2276 FILLER_0_2_301
*2277 FILLER_0_2_307
*2278 FILLER_0_2_309
*2279 FILLER_0_2_321
*2280 FILLER_0_2_333
*2281 FILLER_0_2_345
*2282 FILLER_0_2_357
*2283 FILLER_0_2_363
*2284 FILLER_0_2_365
*2285 FILLER_0_2_377
*2286 FILLER_0_2_389
*2287 FILLER_0_2_401
*2288 FILLER_0_2_41
*2289 FILLER_0_2_413
*2290 FILLER_0_2_419
*2291 FILLER_0_2_421
*2292 FILLER_0_2_433
*2293 FILLER_0_2_445
*2294 FILLER_0_2_457
*2295 FILLER_0_2_469
*2296 FILLER_0_2_475
*2297 FILLER_0_2_477
*2298 FILLER_0_2_489
*2299 FILLER_0_2_501
*2300 FILLER_0_2_513
*2301 FILLER_0_2_525
*2302 FILLER_0_2_53
*2303 FILLER_0_2_531
*2304 FILLER_0_2_533
*2305 FILLER_0_2_545
*2306 FILLER_0_2_557
*2307 FILLER_0_2_569
*2308 FILLER_0_2_581
*2309 FILLER_0_2_587
*2310 FILLER_0_2_589
*2311 FILLER_0_2_601
*2312 FILLER_0_2_613
*2313 FILLER_0_2_65
*2314 FILLER_0_2_77
*2315 FILLER_0_2_83
*2316 FILLER_0_2_85
*2317 FILLER_0_2_97
*2318 FILLER_0_30_111
*2319 FILLER_0_30_123
*2320 FILLER_0_30_135
*2321 FILLER_0_30_139
*2322 FILLER_0_30_141
*2323 FILLER_0_30_147
*2324 FILLER_0_30_15
*2325 FILLER_0_30_152
*2326 FILLER_0_30_164
*2327 FILLER_0_30_176
*2328 FILLER_0_30_188
*2329 FILLER_0_30_197
*2330 FILLER_0_30_201
*2331 FILLER_0_30_213
*2332 FILLER_0_30_225
*2333 FILLER_0_30_253
*2334 FILLER_0_30_266
*2335 FILLER_0_30_27
*2336 FILLER_0_30_286
*2337 FILLER_0_30_29
*2338 FILLER_0_30_298
*2339 FILLER_0_30_3
*2340 FILLER_0_30_306
*2341 FILLER_0_30_352
*2342 FILLER_0_30_356
*2343 FILLER_0_30_363
*2344 FILLER_0_30_365
*2345 FILLER_0_30_377
*2346 FILLER_0_30_389
*2347 FILLER_0_30_401
*2348 FILLER_0_30_41
*2349 FILLER_0_30_413
*2350 FILLER_0_30_419
*2351 FILLER_0_30_421
*2352 FILLER_0_30_433
*2353 FILLER_0_30_445
*2354 FILLER_0_30_457
*2355 FILLER_0_30_469
*2356 FILLER_0_30_475
*2357 FILLER_0_30_477
*2358 FILLER_0_30_489
*2359 FILLER_0_30_501
*2360 FILLER_0_30_513
*2361 FILLER_0_30_525
*2362 FILLER_0_30_53
*2363 FILLER_0_30_531
*2364 FILLER_0_30_533
*2365 FILLER_0_30_545
*2366 FILLER_0_30_557
*2367 FILLER_0_30_569
*2368 FILLER_0_30_581
*2369 FILLER_0_30_587
*2370 FILLER_0_30_589
*2371 FILLER_0_30_601
*2372 FILLER_0_30_613
*2373 FILLER_0_30_65
*2374 FILLER_0_30_77
*2375 FILLER_0_30_83
*2376 FILLER_0_30_85
*2377 FILLER_0_31_111
*2378 FILLER_0_31_113
*2379 FILLER_0_31_125
*2380 FILLER_0_31_137
*2381 FILLER_0_31_149
*2382 FILLER_0_31_161
*2383 FILLER_0_31_167
*2384 FILLER_0_31_169
*2385 FILLER_0_31_178
*2386 FILLER_0_31_19
*2387 FILLER_0_31_190
*2388 FILLER_0_31_202
*2389 FILLER_0_31_208
*2390 FILLER_0_31_220
*2391 FILLER_0_31_225
*2392 FILLER_0_31_233
*2393 FILLER_0_31_239
*2394 FILLER_0_31_245
*2395 FILLER_0_31_272
*2396 FILLER_0_31_281
*2397 FILLER_0_31_289
*2398 FILLER_0_31_31
*2399 FILLER_0_31_310
*2400 FILLER_0_31_357
*2401 FILLER_0_31_363
*2402 FILLER_0_31_381
*2403 FILLER_0_31_389
*2404 FILLER_0_31_393
*2405 FILLER_0_31_405
*2406 FILLER_0_31_417
*2407 FILLER_0_31_429
*2408 FILLER_0_31_43
*2409 FILLER_0_31_441
*2410 FILLER_0_31_447
*2411 FILLER_0_31_449
*2412 FILLER_0_31_461
*2413 FILLER_0_31_473
*2414 FILLER_0_31_485
*2415 FILLER_0_31_497
*2416 FILLER_0_31_503
*2417 FILLER_0_31_505
*2418 FILLER_0_31_517
*2419 FILLER_0_31_529
*2420 FILLER_0_31_541
*2421 FILLER_0_31_55
*2422 FILLER_0_31_553
*2423 FILLER_0_31_559
*2424 FILLER_0_31_561
*2425 FILLER_0_31_57
*2426 FILLER_0_31_573
*2427 FILLER_0_31_585
*2428 FILLER_0_31_597
*2429 FILLER_0_31_609
*2430 FILLER_0_31_615
*2431 FILLER_0_31_617
*2432 FILLER_0_31_621
*2433 FILLER_0_31_69
*2434 FILLER_0_31_7
*2435 FILLER_0_31_92
*2436 FILLER_0_31_99
*2437 FILLER_0_32_107
*2438 FILLER_0_32_111
*2439 FILLER_0_32_132
*2440 FILLER_0_32_141
*2441 FILLER_0_32_15
*2442 FILLER_0_32_156
*2443 FILLER_0_32_188
*2444 FILLER_0_32_197
*2445 FILLER_0_32_203
*2446 FILLER_0_32_211
*2447 FILLER_0_32_231
*2448 FILLER_0_32_243
*2449 FILLER_0_32_251
*2450 FILLER_0_32_253
*2451 FILLER_0_32_27
*2452 FILLER_0_32_273
*2453 FILLER_0_32_29
*2454 FILLER_0_32_298
*2455 FILLER_0_32_3
*2456 FILLER_0_32_309
*2457 FILLER_0_32_323
*2458 FILLER_0_32_358
*2459 FILLER_0_32_365
*2460 FILLER_0_32_377
*2461 FILLER_0_32_389
*2462 FILLER_0_32_401
*2463 FILLER_0_32_41
*2464 FILLER_0_32_413
*2465 FILLER_0_32_419
*2466 FILLER_0_32_421
*2467 FILLER_0_32_433
*2468 FILLER_0_32_445
*2469 FILLER_0_32_457
*2470 FILLER_0_32_469
*2471 FILLER_0_32_475
*2472 FILLER_0_32_477
*2473 FILLER_0_32_489
*2474 FILLER_0_32_501
*2475 FILLER_0_32_513
*2476 FILLER_0_32_525
*2477 FILLER_0_32_53
*2478 FILLER_0_32_531
*2479 FILLER_0_32_533
*2480 FILLER_0_32_545
*2481 FILLER_0_32_557
*2482 FILLER_0_32_569
*2483 FILLER_0_32_581
*2484 FILLER_0_32_587
*2485 FILLER_0_32_589
*2486 FILLER_0_32_601
*2487 FILLER_0_32_613
*2488 FILLER_0_32_65
*2489 FILLER_0_32_77
*2490 FILLER_0_32_83
*2491 FILLER_0_32_85
*2492 FILLER_0_32_93
*2493 FILLER_0_33_110
*2494 FILLER_0_33_113
*2495 FILLER_0_33_127
*2496 FILLER_0_33_139
*2497 FILLER_0_33_15
*2498 FILLER_0_33_164
*2499 FILLER_0_33_199
*2500 FILLER_0_33_211
*2501 FILLER_0_33_220
*2502 FILLER_0_33_245
*2503 FILLER_0_33_257
*2504 FILLER_0_33_269
*2505 FILLER_0_33_27
*2506 FILLER_0_33_277
*2507 FILLER_0_33_287
*2508 FILLER_0_33_296
*2509 FILLER_0_33_3
*2510 FILLER_0_33_308
*2511 FILLER_0_33_317
*2512 FILLER_0_33_329
*2513 FILLER_0_33_335
*2514 FILLER_0_33_350
*2515 FILLER_0_33_362
*2516 FILLER_0_33_374
*2517 FILLER_0_33_386
*2518 FILLER_0_33_39
*2519 FILLER_0_33_393
*2520 FILLER_0_33_405
*2521 FILLER_0_33_417
*2522 FILLER_0_33_429
*2523 FILLER_0_33_441
*2524 FILLER_0_33_447
*2525 FILLER_0_33_449
*2526 FILLER_0_33_461
*2527 FILLER_0_33_473
*2528 FILLER_0_33_485
*2529 FILLER_0_33_497
*2530 FILLER_0_33_503
*2531 FILLER_0_33_505
*2532 FILLER_0_33_51
*2533 FILLER_0_33_517
*2534 FILLER_0_33_529
*2535 FILLER_0_33_541
*2536 FILLER_0_33_55
*2537 FILLER_0_33_553
*2538 FILLER_0_33_559
*2539 FILLER_0_33_561
*2540 FILLER_0_33_57
*2541 FILLER_0_33_573
*2542 FILLER_0_33_585
*2543 FILLER_0_33_597
*2544 FILLER_0_33_609
*2545 FILLER_0_33_615
*2546 FILLER_0_33_617
*2547 FILLER_0_33_69
*2548 FILLER_0_33_93
*2549 FILLER_0_34_109
*2550 FILLER_0_34_118
*2551 FILLER_0_34_128
*2552 FILLER_0_34_15
*2553 FILLER_0_34_164
*2554 FILLER_0_34_168
*2555 FILLER_0_34_175
*2556 FILLER_0_34_192
*2557 FILLER_0_34_200
*2558 FILLER_0_34_236
*2559 FILLER_0_34_248
*2560 FILLER_0_34_27
*2561 FILLER_0_34_274
*2562 FILLER_0_34_286
*2563 FILLER_0_34_29
*2564 FILLER_0_34_3
*2565 FILLER_0_34_309
*2566 FILLER_0_34_321
*2567 FILLER_0_34_333
*2568 FILLER_0_34_345
*2569 FILLER_0_34_357
*2570 FILLER_0_34_363
*2571 FILLER_0_34_365
*2572 FILLER_0_34_377
*2573 FILLER_0_34_389
*2574 FILLER_0_34_401
*2575 FILLER_0_34_41
*2576 FILLER_0_34_413
*2577 FILLER_0_34_419
*2578 FILLER_0_34_421
*2579 FILLER_0_34_433
*2580 FILLER_0_34_445
*2581 FILLER_0_34_457
*2582 FILLER_0_34_469
*2583 FILLER_0_34_475
*2584 FILLER_0_34_477
*2585 FILLER_0_34_489
*2586 FILLER_0_34_501
*2587 FILLER_0_34_513
*2588 FILLER_0_34_525
*2589 FILLER_0_34_53
*2590 FILLER_0_34_531
*2591 FILLER_0_34_533
*2592 FILLER_0_34_545
*2593 FILLER_0_34_557
*2594 FILLER_0_34_569
*2595 FILLER_0_34_581
*2596 FILLER_0_34_587
*2597 FILLER_0_34_589
*2598 FILLER_0_34_601
*2599 FILLER_0_34_613
*2600 FILLER_0_34_65
*2601 FILLER_0_34_77
*2602 FILLER_0_34_83
*2603 FILLER_0_34_85
*2604 FILLER_0_35_100
*2605 FILLER_0_35_113
*2606 FILLER_0_35_128
*2607 FILLER_0_35_15
*2608 FILLER_0_35_164
*2609 FILLER_0_35_169
*2610 FILLER_0_35_193
*2611 FILLER_0_35_205
*2612 FILLER_0_35_210
*2613 FILLER_0_35_222
*2614 FILLER_0_35_239
*2615 FILLER_0_35_27
*2616 FILLER_0_35_278
*2617 FILLER_0_35_281
*2618 FILLER_0_35_3
*2619 FILLER_0_35_308
*2620 FILLER_0_35_320
*2621 FILLER_0_35_332
*2622 FILLER_0_35_337
*2623 FILLER_0_35_349
*2624 FILLER_0_35_361
*2625 FILLER_0_35_373
*2626 FILLER_0_35_385
*2627 FILLER_0_35_39
*2628 FILLER_0_35_391
*2629 FILLER_0_35_393
*2630 FILLER_0_35_405
*2631 FILLER_0_35_417
*2632 FILLER_0_35_429
*2633 FILLER_0_35_441
*2634 FILLER_0_35_447
*2635 FILLER_0_35_449
*2636 FILLER_0_35_461
*2637 FILLER_0_35_473
*2638 FILLER_0_35_485
*2639 FILLER_0_35_497
*2640 FILLER_0_35_503
*2641 FILLER_0_35_505
*2642 FILLER_0_35_51
*2643 FILLER_0_35_517
*2644 FILLER_0_35_529
*2645 FILLER_0_35_541
*2646 FILLER_0_35_55
*2647 FILLER_0_35_553
*2648 FILLER_0_35_559
*2649 FILLER_0_35_561
*2650 FILLER_0_35_57
*2651 FILLER_0_35_573
*2652 FILLER_0_35_585
*2653 FILLER_0_35_597
*2654 FILLER_0_35_609
*2655 FILLER_0_35_615
*2656 FILLER_0_35_617
*2657 FILLER_0_35_69
*2658 FILLER_0_36_109
*2659 FILLER_0_36_124
*2660 FILLER_0_36_132
*2661 FILLER_0_36_141
*2662 FILLER_0_36_15
*2663 FILLER_0_36_155
*2664 FILLER_0_36_167
*2665 FILLER_0_36_179
*2666 FILLER_0_36_191
*2667 FILLER_0_36_195
*2668 FILLER_0_36_197
*2669 FILLER_0_36_219
*2670 FILLER_0_36_231
*2671 FILLER_0_36_243
*2672 FILLER_0_36_250
*2673 FILLER_0_36_253
*2674 FILLER_0_36_257
*2675 FILLER_0_36_27
*2676 FILLER_0_36_276
*2677 FILLER_0_36_288
*2678 FILLER_0_36_29
*2679 FILLER_0_36_3
*2680 FILLER_0_36_300
*2681 FILLER_0_36_309
*2682 FILLER_0_36_321
*2683 FILLER_0_36_348
*2684 FILLER_0_36_360
*2685 FILLER_0_36_365
*2686 FILLER_0_36_377
*2687 FILLER_0_36_389
*2688 FILLER_0_36_401
*2689 FILLER_0_36_41
*2690 FILLER_0_36_413
*2691 FILLER_0_36_419
*2692 FILLER_0_36_421
*2693 FILLER_0_36_433
*2694 FILLER_0_36_445
*2695 FILLER_0_36_457
*2696 FILLER_0_36_469
*2697 FILLER_0_36_475
*2698 FILLER_0_36_477
*2699 FILLER_0_36_489
*2700 FILLER_0_36_501
*2701 FILLER_0_36_513
*2702 FILLER_0_36_525
*2703 FILLER_0_36_53
*2704 FILLER_0_36_531
*2705 FILLER_0_36_533
*2706 FILLER_0_36_545
*2707 FILLER_0_36_557
*2708 FILLER_0_36_569
*2709 FILLER_0_36_581
*2710 FILLER_0_36_587
*2711 FILLER_0_36_589
*2712 FILLER_0_36_601
*2713 FILLER_0_36_613
*2714 FILLER_0_36_65
*2715 FILLER_0_36_77
*2716 FILLER_0_36_83
*2717 FILLER_0_36_85
*2718 FILLER_0_36_97
*2719 FILLER_0_37_103
*2720 FILLER_0_37_133
*2721 FILLER_0_37_141
*2722 FILLER_0_37_15
*2723 FILLER_0_37_163
*2724 FILLER_0_37_167
*2725 FILLER_0_37_169
*2726 FILLER_0_37_175
*2727 FILLER_0_37_183
*2728 FILLER_0_37_222
*2729 FILLER_0_37_240
*2730 FILLER_0_37_252
*2731 FILLER_0_37_27
*2732 FILLER_0_37_275
*2733 FILLER_0_37_279
*2734 FILLER_0_37_3
*2735 FILLER_0_37_307
*2736 FILLER_0_37_316
*2737 FILLER_0_37_324
*2738 FILLER_0_37_328
*2739 FILLER_0_37_345
*2740 FILLER_0_37_366
*2741 FILLER_0_37_378
*2742 FILLER_0_37_39
*2743 FILLER_0_37_390
*2744 FILLER_0_37_393
*2745 FILLER_0_37_405
*2746 FILLER_0_37_417
*2747 FILLER_0_37_429
*2748 FILLER_0_37_441
*2749 FILLER_0_37_447
*2750 FILLER_0_37_449
*2751 FILLER_0_37_461
*2752 FILLER_0_37_473
*2753 FILLER_0_37_485
*2754 FILLER_0_37_497
*2755 FILLER_0_37_503
*2756 FILLER_0_37_505
*2757 FILLER_0_37_51
*2758 FILLER_0_37_517
*2759 FILLER_0_37_529
*2760 FILLER_0_37_541
*2761 FILLER_0_37_55
*2762 FILLER_0_37_553
*2763 FILLER_0_37_559
*2764 FILLER_0_37_561
*2765 FILLER_0_37_57
*2766 FILLER_0_37_573
*2767 FILLER_0_37_585
*2768 FILLER_0_37_597
*2769 FILLER_0_37_609
*2770 FILLER_0_37_615
*2771 FILLER_0_37_617
*2772 FILLER_0_37_69
*2773 FILLER_0_37_91
*2774 FILLER_0_38_119
*2775 FILLER_0_38_131
*2776 FILLER_0_38_138
*2777 FILLER_0_38_141
*2778 FILLER_0_38_15
*2779 FILLER_0_38_153
*2780 FILLER_0_38_165
*2781 FILLER_0_38_171
*2782 FILLER_0_38_192
*2783 FILLER_0_38_197
*2784 FILLER_0_38_201
*2785 FILLER_0_38_218
*2786 FILLER_0_38_226
*2787 FILLER_0_38_243
*2788 FILLER_0_38_251
*2789 FILLER_0_38_253
*2790 FILLER_0_38_265
*2791 FILLER_0_38_27
*2792 FILLER_0_38_277
*2793 FILLER_0_38_285
*2794 FILLER_0_38_29
*2795 FILLER_0_38_3
*2796 FILLER_0_38_307
*2797 FILLER_0_38_313
*2798 FILLER_0_38_365
*2799 FILLER_0_38_377
*2800 FILLER_0_38_389
*2801 FILLER_0_38_401
*2802 FILLER_0_38_41
*2803 FILLER_0_38_413
*2804 FILLER_0_38_419
*2805 FILLER_0_38_421
*2806 FILLER_0_38_433
*2807 FILLER_0_38_445
*2808 FILLER_0_38_457
*2809 FILLER_0_38_469
*2810 FILLER_0_38_475
*2811 FILLER_0_38_477
*2812 FILLER_0_38_489
*2813 FILLER_0_38_501
*2814 FILLER_0_38_513
*2815 FILLER_0_38_525
*2816 FILLER_0_38_53
*2817 FILLER_0_38_531
*2818 FILLER_0_38_533
*2819 FILLER_0_38_545
*2820 FILLER_0_38_557
*2821 FILLER_0_38_569
*2822 FILLER_0_38_581
*2823 FILLER_0_38_587
*2824 FILLER_0_38_589
*2825 FILLER_0_38_601
*2826 FILLER_0_38_613
*2827 FILLER_0_38_65
*2828 FILLER_0_38_77
*2829 FILLER_0_38_83
*2830 FILLER_0_38_92
*2831 FILLER_0_38_98
*2832 FILLER_0_39_113
*2833 FILLER_0_39_130
*2834 FILLER_0_39_142
*2835 FILLER_0_39_15
*2836 FILLER_0_39_156
*2837 FILLER_0_39_207
*2838 FILLER_0_39_221
*2839 FILLER_0_39_233
*2840 FILLER_0_39_258
*2841 FILLER_0_39_27
*2842 FILLER_0_39_270
*2843 FILLER_0_39_278
*2844 FILLER_0_39_287
*2845 FILLER_0_39_3
*2846 FILLER_0_39_310
*2847 FILLER_0_39_322
*2848 FILLER_0_39_334
*2849 FILLER_0_39_352
*2850 FILLER_0_39_39
*2851 FILLER_0_39_391
*2852 FILLER_0_39_393
*2853 FILLER_0_39_405
*2854 FILLER_0_39_417
*2855 FILLER_0_39_429
*2856 FILLER_0_39_441
*2857 FILLER_0_39_447
*2858 FILLER_0_39_449
*2859 FILLER_0_39_461
*2860 FILLER_0_39_473
*2861 FILLER_0_39_485
*2862 FILLER_0_39_497
*2863 FILLER_0_39_503
*2864 FILLER_0_39_505
*2865 FILLER_0_39_51
*2866 FILLER_0_39_517
*2867 FILLER_0_39_529
*2868 FILLER_0_39_541
*2869 FILLER_0_39_55
*2870 FILLER_0_39_553
*2871 FILLER_0_39_559
*2872 FILLER_0_39_561
*2873 FILLER_0_39_57
*2874 FILLER_0_39_573
*2875 FILLER_0_39_585
*2876 FILLER_0_39_597
*2877 FILLER_0_39_609
*2878 FILLER_0_39_615
*2879 FILLER_0_39_617
*2880 FILLER_0_39_69
*2881 FILLER_0_39_73
*2882 FILLER_0_39_94
*2883 FILLER_0_3_105
*2884 FILLER_0_3_111
*2885 FILLER_0_3_113
*2886 FILLER_0_3_125
*2887 FILLER_0_3_137
*2888 FILLER_0_3_149
*2889 FILLER_0_3_15
*2890 FILLER_0_3_161
*2891 FILLER_0_3_167
*2892 FILLER_0_3_169
*2893 FILLER_0_3_181
*2894 FILLER_0_3_193
*2895 FILLER_0_3_205
*2896 FILLER_0_3_217
*2897 FILLER_0_3_223
*2898 FILLER_0_3_225
*2899 FILLER_0_3_237
*2900 FILLER_0_3_249
*2901 FILLER_0_3_261
*2902 FILLER_0_3_27
*2903 FILLER_0_3_273
*2904 FILLER_0_3_279
*2905 FILLER_0_3_281
*2906 FILLER_0_3_293
*2907 FILLER_0_3_3
*2908 FILLER_0_3_305
*2909 FILLER_0_3_317
*2910 FILLER_0_3_329
*2911 FILLER_0_3_335
*2912 FILLER_0_3_337
*2913 FILLER_0_3_349
*2914 FILLER_0_3_361
*2915 FILLER_0_3_373
*2916 FILLER_0_3_385
*2917 FILLER_0_3_39
*2918 FILLER_0_3_391
*2919 FILLER_0_3_393
*2920 FILLER_0_3_405
*2921 FILLER_0_3_417
*2922 FILLER_0_3_429
*2923 FILLER_0_3_441
*2924 FILLER_0_3_447
*2925 FILLER_0_3_449
*2926 FILLER_0_3_461
*2927 FILLER_0_3_473
*2928 FILLER_0_3_485
*2929 FILLER_0_3_497
*2930 FILLER_0_3_503
*2931 FILLER_0_3_505
*2932 FILLER_0_3_51
*2933 FILLER_0_3_517
*2934 FILLER_0_3_529
*2935 FILLER_0_3_541
*2936 FILLER_0_3_55
*2937 FILLER_0_3_553
*2938 FILLER_0_3_559
*2939 FILLER_0_3_561
*2940 FILLER_0_3_57
*2941 FILLER_0_3_573
*2942 FILLER_0_3_585
*2943 FILLER_0_3_597
*2944 FILLER_0_3_609
*2945 FILLER_0_3_615
*2946 FILLER_0_3_617
*2947 FILLER_0_3_69
*2948 FILLER_0_3_81
*2949 FILLER_0_3_93
*2950 FILLER_0_40_104
*2951 FILLER_0_40_134
*2952 FILLER_0_40_141
*2953 FILLER_0_40_147
*2954 FILLER_0_40_15
*2955 FILLER_0_40_161
*2956 FILLER_0_40_193
*2957 FILLER_0_40_197
*2958 FILLER_0_40_209
*2959 FILLER_0_40_219
*2960 FILLER_0_40_227
*2961 FILLER_0_40_238
*2962 FILLER_0_40_250
*2963 FILLER_0_40_253
*2964 FILLER_0_40_265
*2965 FILLER_0_40_27
*2966 FILLER_0_40_277
*2967 FILLER_0_40_289
*2968 FILLER_0_40_29
*2969 FILLER_0_40_3
*2970 FILLER_0_40_307
*2971 FILLER_0_40_316
*2972 FILLER_0_40_328
*2973 FILLER_0_40_336
*2974 FILLER_0_40_342
*2975 FILLER_0_40_353
*2976 FILLER_0_40_361
*2977 FILLER_0_40_365
*2978 FILLER_0_40_377
*2979 FILLER_0_40_389
*2980 FILLER_0_40_401
*2981 FILLER_0_40_41
*2982 FILLER_0_40_413
*2983 FILLER_0_40_419
*2984 FILLER_0_40_421
*2985 FILLER_0_40_433
*2986 FILLER_0_40_445
*2987 FILLER_0_40_457
*2988 FILLER_0_40_469
*2989 FILLER_0_40_475
*2990 FILLER_0_40_477
*2991 FILLER_0_40_489
*2992 FILLER_0_40_501
*2993 FILLER_0_40_513
*2994 FILLER_0_40_525
*2995 FILLER_0_40_53
*2996 FILLER_0_40_531
*2997 FILLER_0_40_533
*2998 FILLER_0_40_545
*2999 FILLER_0_40_557
*3000 FILLER_0_40_569
*3001 FILLER_0_40_581
*3002 FILLER_0_40_587
*3003 FILLER_0_40_589
*3004 FILLER_0_40_601
*3005 FILLER_0_40_613
*3006 FILLER_0_40_65
*3007 FILLER_0_40_92
*3008 FILLER_0_41_107
*3009 FILLER_0_41_111
*3010 FILLER_0_41_134
*3011 FILLER_0_41_142
*3012 FILLER_0_41_15
*3013 FILLER_0_41_166
*3014 FILLER_0_41_188
*3015 FILLER_0_41_194
*3016 FILLER_0_41_203
*3017 FILLER_0_41_215
*3018 FILLER_0_41_259
*3019 FILLER_0_41_27
*3020 FILLER_0_41_287
*3021 FILLER_0_41_299
*3022 FILLER_0_41_3
*3023 FILLER_0_41_305
*3024 FILLER_0_41_316
*3025 FILLER_0_41_324
*3026 FILLER_0_41_337
*3027 FILLER_0_41_349
*3028 FILLER_0_41_361
*3029 FILLER_0_41_373
*3030 FILLER_0_41_385
*3031 FILLER_0_41_39
*3032 FILLER_0_41_391
*3033 FILLER_0_41_393
*3034 FILLER_0_41_405
*3035 FILLER_0_41_417
*3036 FILLER_0_41_429
*3037 FILLER_0_41_441
*3038 FILLER_0_41_447
*3039 FILLER_0_41_449
*3040 FILLER_0_41_461
*3041 FILLER_0_41_473
*3042 FILLER_0_41_485
*3043 FILLER_0_41_497
*3044 FILLER_0_41_503
*3045 FILLER_0_41_505
*3046 FILLER_0_41_51
*3047 FILLER_0_41_517
*3048 FILLER_0_41_529
*3049 FILLER_0_41_541
*3050 FILLER_0_41_55
*3051 FILLER_0_41_553
*3052 FILLER_0_41_559
*3053 FILLER_0_41_561
*3054 FILLER_0_41_57
*3055 FILLER_0_41_573
*3056 FILLER_0_41_585
*3057 FILLER_0_41_597
*3058 FILLER_0_41_609
*3059 FILLER_0_41_615
*3060 FILLER_0_41_617
*3061 FILLER_0_41_69
*3062 FILLER_0_41_91
*3063 FILLER_0_41_97
*3064 FILLER_0_42_109
*3065 FILLER_0_42_117
*3066 FILLER_0_42_127
*3067 FILLER_0_42_15
*3068 FILLER_0_42_164
*3069 FILLER_0_42_172
*3070 FILLER_0_42_184
*3071 FILLER_0_42_197
*3072 FILLER_0_42_209
*3073 FILLER_0_42_221
*3074 FILLER_0_42_225
*3075 FILLER_0_42_241
*3076 FILLER_0_42_249
*3077 FILLER_0_42_253
*3078 FILLER_0_42_259
*3079 FILLER_0_42_27
*3080 FILLER_0_42_29
*3081 FILLER_0_42_293
*3082 FILLER_0_42_3
*3083 FILLER_0_42_305
*3084 FILLER_0_42_309
*3085 FILLER_0_42_358
*3086 FILLER_0_42_365
*3087 FILLER_0_42_377
*3088 FILLER_0_42_389
*3089 FILLER_0_42_401
*3090 FILLER_0_42_41
*3091 FILLER_0_42_413
*3092 FILLER_0_42_419
*3093 FILLER_0_42_421
*3094 FILLER_0_42_433
*3095 FILLER_0_42_445
*3096 FILLER_0_42_457
*3097 FILLER_0_42_469
*3098 FILLER_0_42_475
*3099 FILLER_0_42_477
*3100 FILLER_0_42_489
*3101 FILLER_0_42_501
*3102 FILLER_0_42_513
*3103 FILLER_0_42_525
*3104 FILLER_0_42_53
*3105 FILLER_0_42_531
*3106 FILLER_0_42_533
*3107 FILLER_0_42_545
*3108 FILLER_0_42_557
*3109 FILLER_0_42_569
*3110 FILLER_0_42_581
*3111 FILLER_0_42_587
*3112 FILLER_0_42_589
*3113 FILLER_0_42_601
*3114 FILLER_0_42_613
*3115 FILLER_0_42_65
*3116 FILLER_0_42_77
*3117 FILLER_0_42_83
*3118 FILLER_0_42_85
*3119 FILLER_0_42_97
*3120 FILLER_0_43_109
*3121 FILLER_0_43_113
*3122 FILLER_0_43_125
*3123 FILLER_0_43_137
*3124 FILLER_0_43_15
*3125 FILLER_0_43_163
*3126 FILLER_0_43_167
*3127 FILLER_0_43_177
*3128 FILLER_0_43_189
*3129 FILLER_0_43_211
*3130 FILLER_0_43_220
*3131 FILLER_0_43_225
*3132 FILLER_0_43_250
*3133 FILLER_0_43_258
*3134 FILLER_0_43_27
*3135 FILLER_0_43_281
*3136 FILLER_0_43_3
*3137 FILLER_0_43_301
*3138 FILLER_0_43_305
*3139 FILLER_0_43_333
*3140 FILLER_0_43_337
*3141 FILLER_0_43_360
*3142 FILLER_0_43_372
*3143 FILLER_0_43_384
*3144 FILLER_0_43_39
*3145 FILLER_0_43_393
*3146 FILLER_0_43_405
*3147 FILLER_0_43_417
*3148 FILLER_0_43_429
*3149 FILLER_0_43_441
*3150 FILLER_0_43_447
*3151 FILLER_0_43_449
*3152 FILLER_0_43_461
*3153 FILLER_0_43_473
*3154 FILLER_0_43_485
*3155 FILLER_0_43_497
*3156 FILLER_0_43_503
*3157 FILLER_0_43_505
*3158 FILLER_0_43_51
*3159 FILLER_0_43_517
*3160 FILLER_0_43_529
*3161 FILLER_0_43_541
*3162 FILLER_0_43_55
*3163 FILLER_0_43_553
*3164 FILLER_0_43_559
*3165 FILLER_0_43_561
*3166 FILLER_0_43_57
*3167 FILLER_0_43_573
*3168 FILLER_0_43_585
*3169 FILLER_0_43_597
*3170 FILLER_0_43_609
*3171 FILLER_0_43_615
*3172 FILLER_0_43_617
*3173 FILLER_0_43_69
*3174 FILLER_0_43_97
*3175 FILLER_0_44_105
*3176 FILLER_0_44_134
*3177 FILLER_0_44_149
*3178 FILLER_0_44_175
*3179 FILLER_0_44_181
*3180 FILLER_0_44_19
*3181 FILLER_0_44_190
*3182 FILLER_0_44_197
*3183 FILLER_0_44_210
*3184 FILLER_0_44_218
*3185 FILLER_0_44_250
*3186 FILLER_0_44_253
*3187 FILLER_0_44_261
*3188 FILLER_0_44_27
*3189 FILLER_0_44_29
*3190 FILLER_0_44_290
*3191 FILLER_0_44_329
*3192 FILLER_0_44_365
*3193 FILLER_0_44_385
*3194 FILLER_0_44_397
*3195 FILLER_0_44_409
*3196 FILLER_0_44_41
*3197 FILLER_0_44_417
*3198 FILLER_0_44_421
*3199 FILLER_0_44_433
*3200 FILLER_0_44_445
*3201 FILLER_0_44_457
*3202 FILLER_0_44_469
*3203 FILLER_0_44_475
*3204 FILLER_0_44_477
*3205 FILLER_0_44_489
*3206 FILLER_0_44_501
*3207 FILLER_0_44_513
*3208 FILLER_0_44_525
*3209 FILLER_0_44_53
*3210 FILLER_0_44_531
*3211 FILLER_0_44_533
*3212 FILLER_0_44_545
*3213 FILLER_0_44_557
*3214 FILLER_0_44_569
*3215 FILLER_0_44_581
*3216 FILLER_0_44_587
*3217 FILLER_0_44_589
*3218 FILLER_0_44_601
*3219 FILLER_0_44_613
*3220 FILLER_0_44_621
*3221 FILLER_0_44_65
*3222 FILLER_0_44_7
*3223 FILLER_0_45_102
*3224 FILLER_0_45_110
*3225 FILLER_0_45_120
*3226 FILLER_0_45_146
*3227 FILLER_0_45_15
*3228 FILLER_0_45_158
*3229 FILLER_0_45_166
*3230 FILLER_0_45_169
*3231 FILLER_0_45_181
*3232 FILLER_0_45_221
*3233 FILLER_0_45_225
*3234 FILLER_0_45_234
*3235 FILLER_0_45_246
*3236 FILLER_0_45_258
*3237 FILLER_0_45_27
*3238 FILLER_0_45_276
*3239 FILLER_0_45_281
*3240 FILLER_0_45_293
*3241 FILLER_0_45_297
*3242 FILLER_0_45_3
*3243 FILLER_0_45_326
*3244 FILLER_0_45_334
*3245 FILLER_0_45_337
*3246 FILLER_0_45_349
*3247 FILLER_0_45_361
*3248 FILLER_0_45_373
*3249 FILLER_0_45_385
*3250 FILLER_0_45_39
*3251 FILLER_0_45_391
*3252 FILLER_0_45_393
*3253 FILLER_0_45_405
*3254 FILLER_0_45_417
*3255 FILLER_0_45_429
*3256 FILLER_0_45_441
*3257 FILLER_0_45_447
*3258 FILLER_0_45_449
*3259 FILLER_0_45_461
*3260 FILLER_0_45_473
*3261 FILLER_0_45_485
*3262 FILLER_0_45_497
*3263 FILLER_0_45_503
*3264 FILLER_0_45_505
*3265 FILLER_0_45_51
*3266 FILLER_0_45_517
*3267 FILLER_0_45_529
*3268 FILLER_0_45_541
*3269 FILLER_0_45_55
*3270 FILLER_0_45_553
*3271 FILLER_0_45_559
*3272 FILLER_0_45_561
*3273 FILLER_0_45_57
*3274 FILLER_0_45_573
*3275 FILLER_0_45_585
*3276 FILLER_0_45_597
*3277 FILLER_0_45_609
*3278 FILLER_0_45_615
*3279 FILLER_0_45_617
*3280 FILLER_0_45_69
*3281 FILLER_0_45_81
*3282 FILLER_0_45_85
*3283 FILLER_0_46_105
*3284 FILLER_0_46_117
*3285 FILLER_0_46_137
*3286 FILLER_0_46_141
*3287 FILLER_0_46_15
*3288 FILLER_0_46_153
*3289 FILLER_0_46_159
*3290 FILLER_0_46_168
*3291 FILLER_0_46_174
*3292 FILLER_0_46_188
*3293 FILLER_0_46_197
*3294 FILLER_0_46_214
*3295 FILLER_0_46_220
*3296 FILLER_0_46_227
*3297 FILLER_0_46_239
*3298 FILLER_0_46_251
*3299 FILLER_0_46_253
*3300 FILLER_0_46_265
*3301 FILLER_0_46_27
*3302 FILLER_0_46_277
*3303 FILLER_0_46_289
*3304 FILLER_0_46_29
*3305 FILLER_0_46_3
*3306 FILLER_0_46_301
*3307 FILLER_0_46_307
*3308 FILLER_0_46_309
*3309 FILLER_0_46_321
*3310 FILLER_0_46_333
*3311 FILLER_0_46_345
*3312 FILLER_0_46_357
*3313 FILLER_0_46_363
*3314 FILLER_0_46_365
*3315 FILLER_0_46_377
*3316 FILLER_0_46_389
*3317 FILLER_0_46_401
*3318 FILLER_0_46_41
*3319 FILLER_0_46_413
*3320 FILLER_0_46_419
*3321 FILLER_0_46_421
*3322 FILLER_0_46_433
*3323 FILLER_0_46_445
*3324 FILLER_0_46_457
*3325 FILLER_0_46_469
*3326 FILLER_0_46_475
*3327 FILLER_0_46_477
*3328 FILLER_0_46_489
*3329 FILLER_0_46_501
*3330 FILLER_0_46_513
*3331 FILLER_0_46_525
*3332 FILLER_0_46_53
*3333 FILLER_0_46_531
*3334 FILLER_0_46_533
*3335 FILLER_0_46_545
*3336 FILLER_0_46_557
*3337 FILLER_0_46_569
*3338 FILLER_0_46_581
*3339 FILLER_0_46_587
*3340 FILLER_0_46_589
*3341 FILLER_0_46_601
*3342 FILLER_0_46_613
*3343 FILLER_0_46_65
*3344 FILLER_0_47_101
*3345 FILLER_0_47_136
*3346 FILLER_0_47_15
*3347 FILLER_0_47_184
*3348 FILLER_0_47_209
*3349 FILLER_0_47_221
*3350 FILLER_0_47_233
*3351 FILLER_0_47_245
*3352 FILLER_0_47_257
*3353 FILLER_0_47_27
*3354 FILLER_0_47_281
*3355 FILLER_0_47_293
*3356 FILLER_0_47_3
*3357 FILLER_0_47_305
*3358 FILLER_0_47_317
*3359 FILLER_0_47_329
*3360 FILLER_0_47_335
*3361 FILLER_0_47_337
*3362 FILLER_0_47_352
*3363 FILLER_0_47_364
*3364 FILLER_0_47_376
*3365 FILLER_0_47_388
*3366 FILLER_0_47_39
*3367 FILLER_0_47_393
*3368 FILLER_0_47_405
*3369 FILLER_0_47_417
*3370 FILLER_0_47_429
*3371 FILLER_0_47_441
*3372 FILLER_0_47_447
*3373 FILLER_0_47_449
*3374 FILLER_0_47_461
*3375 FILLER_0_47_473
*3376 FILLER_0_47_485
*3377 FILLER_0_47_497
*3378 FILLER_0_47_503
*3379 FILLER_0_47_505
*3380 FILLER_0_47_51
*3381 FILLER_0_47_517
*3382 FILLER_0_47_529
*3383 FILLER_0_47_541
*3384 FILLER_0_47_55
*3385 FILLER_0_47_553
*3386 FILLER_0_47_559
*3387 FILLER_0_47_561
*3388 FILLER_0_47_57
*3389 FILLER_0_47_573
*3390 FILLER_0_47_585
*3391 FILLER_0_47_597
*3392 FILLER_0_47_609
*3393 FILLER_0_47_615
*3394 FILLER_0_47_617
*3395 FILLER_0_47_69
*3396 FILLER_0_47_81
*3397 FILLER_0_48_114
*3398 FILLER_0_48_141
*3399 FILLER_0_48_15
*3400 FILLER_0_48_153
*3401 FILLER_0_48_166
*3402 FILLER_0_48_197
*3403 FILLER_0_48_203
*3404 FILLER_0_48_214
*3405 FILLER_0_48_222
*3406 FILLER_0_48_246
*3407 FILLER_0_48_253
*3408 FILLER_0_48_261
*3409 FILLER_0_48_27
*3410 FILLER_0_48_285
*3411 FILLER_0_48_29
*3412 FILLER_0_48_293
*3413 FILLER_0_48_3
*3414 FILLER_0_48_305
*3415 FILLER_0_48_332
*3416 FILLER_0_48_359
*3417 FILLER_0_48_363
*3418 FILLER_0_48_365
*3419 FILLER_0_48_377
*3420 FILLER_0_48_389
*3421 FILLER_0_48_401
*3422 FILLER_0_48_41
*3423 FILLER_0_48_413
*3424 FILLER_0_48_419
*3425 FILLER_0_48_421
*3426 FILLER_0_48_433
*3427 FILLER_0_48_445
*3428 FILLER_0_48_457
*3429 FILLER_0_48_469
*3430 FILLER_0_48_475
*3431 FILLER_0_48_477
*3432 FILLER_0_48_489
*3433 FILLER_0_48_501
*3434 FILLER_0_48_513
*3435 FILLER_0_48_525
*3436 FILLER_0_48_53
*3437 FILLER_0_48_531
*3438 FILLER_0_48_533
*3439 FILLER_0_48_545
*3440 FILLER_0_48_557
*3441 FILLER_0_48_569
*3442 FILLER_0_48_581
*3443 FILLER_0_48_587
*3444 FILLER_0_48_589
*3445 FILLER_0_48_601
*3446 FILLER_0_48_613
*3447 FILLER_0_48_65
*3448 FILLER_0_48_77
*3449 FILLER_0_48_83
*3450 FILLER_0_49_106
*3451 FILLER_0_49_113
*3452 FILLER_0_49_122
*3453 FILLER_0_49_145
*3454 FILLER_0_49_15
*3455 FILLER_0_49_189
*3456 FILLER_0_49_201
*3457 FILLER_0_49_213
*3458 FILLER_0_49_219
*3459 FILLER_0_49_225
*3460 FILLER_0_49_248
*3461 FILLER_0_49_252
*3462 FILLER_0_49_27
*3463 FILLER_0_49_281
*3464 FILLER_0_49_295
*3465 FILLER_0_49_3
*3466 FILLER_0_49_326
*3467 FILLER_0_49_346
*3468 FILLER_0_49_372
*3469 FILLER_0_49_384
*3470 FILLER_0_49_39
*3471 FILLER_0_49_393
*3472 FILLER_0_49_405
*3473 FILLER_0_49_417
*3474 FILLER_0_49_429
*3475 FILLER_0_49_441
*3476 FILLER_0_49_447
*3477 FILLER_0_49_449
*3478 FILLER_0_49_461
*3479 FILLER_0_49_473
*3480 FILLER_0_49_485
*3481 FILLER_0_49_497
*3482 FILLER_0_49_503
*3483 FILLER_0_49_505
*3484 FILLER_0_49_51
*3485 FILLER_0_49_517
*3486 FILLER_0_49_529
*3487 FILLER_0_49_541
*3488 FILLER_0_49_55
*3489 FILLER_0_49_553
*3490 FILLER_0_49_559
*3491 FILLER_0_49_561
*3492 FILLER_0_49_57
*3493 FILLER_0_49_573
*3494 FILLER_0_49_585
*3495 FILLER_0_49_597
*3496 FILLER_0_49_609
*3497 FILLER_0_49_615
*3498 FILLER_0_49_617
*3499 FILLER_0_49_69
*3500 FILLER_0_49_81
*3501 FILLER_0_49_85
*3502 FILLER_0_4_109
*3503 FILLER_0_4_121
*3504 FILLER_0_4_133
*3505 FILLER_0_4_139
*3506 FILLER_0_4_141
*3507 FILLER_0_4_153
*3508 FILLER_0_4_165
*3509 FILLER_0_4_177
*3510 FILLER_0_4_189
*3511 FILLER_0_4_19
*3512 FILLER_0_4_195
*3513 FILLER_0_4_197
*3514 FILLER_0_4_209
*3515 FILLER_0_4_221
*3516 FILLER_0_4_229
*3517 FILLER_0_4_246
*3518 FILLER_0_4_253
*3519 FILLER_0_4_265
*3520 FILLER_0_4_27
*3521 FILLER_0_4_277
*3522 FILLER_0_4_289
*3523 FILLER_0_4_29
*3524 FILLER_0_4_301
*3525 FILLER_0_4_307
*3526 FILLER_0_4_309
*3527 FILLER_0_4_321
*3528 FILLER_0_4_333
*3529 FILLER_0_4_345
*3530 FILLER_0_4_357
*3531 FILLER_0_4_363
*3532 FILLER_0_4_365
*3533 FILLER_0_4_377
*3534 FILLER_0_4_389
*3535 FILLER_0_4_401
*3536 FILLER_0_4_41
*3537 FILLER_0_4_413
*3538 FILLER_0_4_419
*3539 FILLER_0_4_421
*3540 FILLER_0_4_433
*3541 FILLER_0_4_445
*3542 FILLER_0_4_457
*3543 FILLER_0_4_469
*3544 FILLER_0_4_475
*3545 FILLER_0_4_477
*3546 FILLER_0_4_489
*3547 FILLER_0_4_501
*3548 FILLER_0_4_513
*3549 FILLER_0_4_525
*3550 FILLER_0_4_53
*3551 FILLER_0_4_531
*3552 FILLER_0_4_533
*3553 FILLER_0_4_545
*3554 FILLER_0_4_557
*3555 FILLER_0_4_569
*3556 FILLER_0_4_581
*3557 FILLER_0_4_587
*3558 FILLER_0_4_589
*3559 FILLER_0_4_601
*3560 FILLER_0_4_613
*3561 FILLER_0_4_621
*3562 FILLER_0_4_65
*3563 FILLER_0_4_7
*3564 FILLER_0_4_77
*3565 FILLER_0_4_83
*3566 FILLER_0_4_85
*3567 FILLER_0_4_97
*3568 FILLER_0_50_109
*3569 FILLER_0_50_117
*3570 FILLER_0_50_138
*3571 FILLER_0_50_141
*3572 FILLER_0_50_15
*3573 FILLER_0_50_153
*3574 FILLER_0_50_165
*3575 FILLER_0_50_177
*3576 FILLER_0_50_189
*3577 FILLER_0_50_195
*3578 FILLER_0_50_218
*3579 FILLER_0_50_225
*3580 FILLER_0_50_234
*3581 FILLER_0_50_246
*3582 FILLER_0_50_253
*3583 FILLER_0_50_267
*3584 FILLER_0_50_27
*3585 FILLER_0_50_29
*3586 FILLER_0_50_293
*3587 FILLER_0_50_3
*3588 FILLER_0_50_305
*3589 FILLER_0_50_324
*3590 FILLER_0_50_365
*3591 FILLER_0_50_377
*3592 FILLER_0_50_389
*3593 FILLER_0_50_401
*3594 FILLER_0_50_41
*3595 FILLER_0_50_413
*3596 FILLER_0_50_419
*3597 FILLER_0_50_421
*3598 FILLER_0_50_433
*3599 FILLER_0_50_445
*3600 FILLER_0_50_457
*3601 FILLER_0_50_469
*3602 FILLER_0_50_475
*3603 FILLER_0_50_477
*3604 FILLER_0_50_489
*3605 FILLER_0_50_501
*3606 FILLER_0_50_513
*3607 FILLER_0_50_525
*3608 FILLER_0_50_53
*3609 FILLER_0_50_531
*3610 FILLER_0_50_533
*3611 FILLER_0_50_545
*3612 FILLER_0_50_557
*3613 FILLER_0_50_569
*3614 FILLER_0_50_581
*3615 FILLER_0_50_587
*3616 FILLER_0_50_589
*3617 FILLER_0_50_601
*3618 FILLER_0_50_613
*3619 FILLER_0_50_65
*3620 FILLER_0_50_77
*3621 FILLER_0_50_83
*3622 FILLER_0_50_85
*3623 FILLER_0_50_97
*3624 FILLER_0_51_105
*3625 FILLER_0_51_111
*3626 FILLER_0_51_113
*3627 FILLER_0_51_125
*3628 FILLER_0_51_137
*3629 FILLER_0_51_145
*3630 FILLER_0_51_15
*3631 FILLER_0_51_153
*3632 FILLER_0_51_165
*3633 FILLER_0_51_169
*3634 FILLER_0_51_183
*3635 FILLER_0_51_212
*3636 FILLER_0_51_246
*3637 FILLER_0_51_258
*3638 FILLER_0_51_27
*3639 FILLER_0_51_287
*3640 FILLER_0_51_295
*3641 FILLER_0_51_3
*3642 FILLER_0_51_310
*3643 FILLER_0_51_319
*3644 FILLER_0_51_331
*3645 FILLER_0_51_335
*3646 FILLER_0_51_362
*3647 FILLER_0_51_374
*3648 FILLER_0_51_386
*3649 FILLER_0_51_39
*3650 FILLER_0_51_393
*3651 FILLER_0_51_405
*3652 FILLER_0_51_417
*3653 FILLER_0_51_429
*3654 FILLER_0_51_441
*3655 FILLER_0_51_447
*3656 FILLER_0_51_449
*3657 FILLER_0_51_461
*3658 FILLER_0_51_473
*3659 FILLER_0_51_485
*3660 FILLER_0_51_497
*3661 FILLER_0_51_503
*3662 FILLER_0_51_505
*3663 FILLER_0_51_51
*3664 FILLER_0_51_517
*3665 FILLER_0_51_529
*3666 FILLER_0_51_541
*3667 FILLER_0_51_55
*3668 FILLER_0_51_553
*3669 FILLER_0_51_559
*3670 FILLER_0_51_561
*3671 FILLER_0_51_57
*3672 FILLER_0_51_573
*3673 FILLER_0_51_585
*3674 FILLER_0_51_597
*3675 FILLER_0_51_609
*3676 FILLER_0_51_615
*3677 FILLER_0_51_617
*3678 FILLER_0_51_69
*3679 FILLER_0_51_81
*3680 FILLER_0_51_93
*3681 FILLER_0_52_109
*3682 FILLER_0_52_121
*3683 FILLER_0_52_133
*3684 FILLER_0_52_139
*3685 FILLER_0_52_141
*3686 FILLER_0_52_15
*3687 FILLER_0_52_153
*3688 FILLER_0_52_187
*3689 FILLER_0_52_195
*3690 FILLER_0_52_197
*3691 FILLER_0_52_214
*3692 FILLER_0_52_220
*3693 FILLER_0_52_250
*3694 FILLER_0_52_253
*3695 FILLER_0_52_257
*3696 FILLER_0_52_269
*3697 FILLER_0_52_27
*3698 FILLER_0_52_278
*3699 FILLER_0_52_29
*3700 FILLER_0_52_291
*3701 FILLER_0_52_296
*3702 FILLER_0_52_3
*3703 FILLER_0_52_329
*3704 FILLER_0_52_362
*3705 FILLER_0_52_365
*3706 FILLER_0_52_377
*3707 FILLER_0_52_389
*3708 FILLER_0_52_401
*3709 FILLER_0_52_41
*3710 FILLER_0_52_413
*3711 FILLER_0_52_419
*3712 FILLER_0_52_421
*3713 FILLER_0_52_433
*3714 FILLER_0_52_445
*3715 FILLER_0_52_457
*3716 FILLER_0_52_469
*3717 FILLER_0_52_475
*3718 FILLER_0_52_477
*3719 FILLER_0_52_489
*3720 FILLER_0_52_501
*3721 FILLER_0_52_513
*3722 FILLER_0_52_525
*3723 FILLER_0_52_53
*3724 FILLER_0_52_531
*3725 FILLER_0_52_533
*3726 FILLER_0_52_545
*3727 FILLER_0_52_557
*3728 FILLER_0_52_569
*3729 FILLER_0_52_581
*3730 FILLER_0_52_587
*3731 FILLER_0_52_589
*3732 FILLER_0_52_601
*3733 FILLER_0_52_613
*3734 FILLER_0_52_65
*3735 FILLER_0_52_77
*3736 FILLER_0_52_83
*3737 FILLER_0_52_85
*3738 FILLER_0_52_97
*3739 FILLER_0_53_105
*3740 FILLER_0_53_111
*3741 FILLER_0_53_113
*3742 FILLER_0_53_125
*3743 FILLER_0_53_137
*3744 FILLER_0_53_149
*3745 FILLER_0_53_15
*3746 FILLER_0_53_157
*3747 FILLER_0_53_182
*3748 FILLER_0_53_194
*3749 FILLER_0_53_198
*3750 FILLER_0_53_207
*3751 FILLER_0_53_215
*3752 FILLER_0_53_225
*3753 FILLER_0_53_249
*3754 FILLER_0_53_261
*3755 FILLER_0_53_27
*3756 FILLER_0_53_273
*3757 FILLER_0_53_279
*3758 FILLER_0_53_292
*3759 FILLER_0_53_3
*3760 FILLER_0_53_304
*3761 FILLER_0_53_316
*3762 FILLER_0_53_328
*3763 FILLER_0_53_337
*3764 FILLER_0_53_345
*3765 FILLER_0_53_352
*3766 FILLER_0_53_373
*3767 FILLER_0_53_385
*3768 FILLER_0_53_39
*3769 FILLER_0_53_391
*3770 FILLER_0_53_393
*3771 FILLER_0_53_405
*3772 FILLER_0_53_417
*3773 FILLER_0_53_429
*3774 FILLER_0_53_441
*3775 FILLER_0_53_447
*3776 FILLER_0_53_449
*3777 FILLER_0_53_461
*3778 FILLER_0_53_473
*3779 FILLER_0_53_485
*3780 FILLER_0_53_497
*3781 FILLER_0_53_503
*3782 FILLER_0_53_505
*3783 FILLER_0_53_51
*3784 FILLER_0_53_517
*3785 FILLER_0_53_529
*3786 FILLER_0_53_541
*3787 FILLER_0_53_55
*3788 FILLER_0_53_553
*3789 FILLER_0_53_559
*3790 FILLER_0_53_561
*3791 FILLER_0_53_57
*3792 FILLER_0_53_573
*3793 FILLER_0_53_585
*3794 FILLER_0_53_597
*3795 FILLER_0_53_609
*3796 FILLER_0_53_615
*3797 FILLER_0_53_617
*3798 FILLER_0_53_69
*3799 FILLER_0_53_81
*3800 FILLER_0_53_93
*3801 FILLER_0_54_109
*3802 FILLER_0_54_121
*3803 FILLER_0_54_133
*3804 FILLER_0_54_139
*3805 FILLER_0_54_141
*3806 FILLER_0_54_15
*3807 FILLER_0_54_153
*3808 FILLER_0_54_157
*3809 FILLER_0_54_183
*3810 FILLER_0_54_187
*3811 FILLER_0_54_197
*3812 FILLER_0_54_203
*3813 FILLER_0_54_212
*3814 FILLER_0_54_245
*3815 FILLER_0_54_251
*3816 FILLER_0_54_253
*3817 FILLER_0_54_27
*3818 FILLER_0_54_282
*3819 FILLER_0_54_29
*3820 FILLER_0_54_296
*3821 FILLER_0_54_3
*3822 FILLER_0_54_305
*3823 FILLER_0_54_314
*3824 FILLER_0_54_326
*3825 FILLER_0_54_332
*3826 FILLER_0_54_371
*3827 FILLER_0_54_383
*3828 FILLER_0_54_395
*3829 FILLER_0_54_407
*3830 FILLER_0_54_41
*3831 FILLER_0_54_419
*3832 FILLER_0_54_421
*3833 FILLER_0_54_433
*3834 FILLER_0_54_445
*3835 FILLER_0_54_457
*3836 FILLER_0_54_469
*3837 FILLER_0_54_475
*3838 FILLER_0_54_477
*3839 FILLER_0_54_489
*3840 FILLER_0_54_501
*3841 FILLER_0_54_513
*3842 FILLER_0_54_525
*3843 FILLER_0_54_53
*3844 FILLER_0_54_531
*3845 FILLER_0_54_533
*3846 FILLER_0_54_545
*3847 FILLER_0_54_557
*3848 FILLER_0_54_569
*3849 FILLER_0_54_581
*3850 FILLER_0_54_587
*3851 FILLER_0_54_589
*3852 FILLER_0_54_601
*3853 FILLER_0_54_613
*3854 FILLER_0_54_65
*3855 FILLER_0_54_77
*3856 FILLER_0_54_83
*3857 FILLER_0_54_85
*3858 FILLER_0_54_97
*3859 FILLER_0_55_105
*3860 FILLER_0_55_111
*3861 FILLER_0_55_113
*3862 FILLER_0_55_125
*3863 FILLER_0_55_137
*3864 FILLER_0_55_149
*3865 FILLER_0_55_15
*3866 FILLER_0_55_161
*3867 FILLER_0_55_167
*3868 FILLER_0_55_169
*3869 FILLER_0_55_181
*3870 FILLER_0_55_187
*3871 FILLER_0_55_209
*3872 FILLER_0_55_221
*3873 FILLER_0_55_246
*3874 FILLER_0_55_254
*3875 FILLER_0_55_27
*3876 FILLER_0_55_275
*3877 FILLER_0_55_279
*3878 FILLER_0_55_281
*3879 FILLER_0_55_293
*3880 FILLER_0_55_297
*3881 FILLER_0_55_3
*3882 FILLER_0_55_337
*3883 FILLER_0_55_349
*3884 FILLER_0_55_364
*3885 FILLER_0_55_376
*3886 FILLER_0_55_388
*3887 FILLER_0_55_39
*3888 FILLER_0_55_393
*3889 FILLER_0_55_405
*3890 FILLER_0_55_417
*3891 FILLER_0_55_429
*3892 FILLER_0_55_441
*3893 FILLER_0_55_447
*3894 FILLER_0_55_449
*3895 FILLER_0_55_461
*3896 FILLER_0_55_473
*3897 FILLER_0_55_485
*3898 FILLER_0_55_497
*3899 FILLER_0_55_503
*3900 FILLER_0_55_505
*3901 FILLER_0_55_51
*3902 FILLER_0_55_517
*3903 FILLER_0_55_529
*3904 FILLER_0_55_541
*3905 FILLER_0_55_55
*3906 FILLER_0_55_553
*3907 FILLER_0_55_559
*3908 FILLER_0_55_561
*3909 FILLER_0_55_57
*3910 FILLER_0_55_573
*3911 FILLER_0_55_585
*3912 FILLER_0_55_597
*3913 FILLER_0_55_609
*3914 FILLER_0_55_615
*3915 FILLER_0_55_617
*3916 FILLER_0_55_69
*3917 FILLER_0_55_81
*3918 FILLER_0_55_93
*3919 FILLER_0_56_109
*3920 FILLER_0_56_121
*3921 FILLER_0_56_133
*3922 FILLER_0_56_139
*3923 FILLER_0_56_141
*3924 FILLER_0_56_15
*3925 FILLER_0_56_153
*3926 FILLER_0_56_165
*3927 FILLER_0_56_173
*3928 FILLER_0_56_178
*3929 FILLER_0_56_190
*3930 FILLER_0_56_197
*3931 FILLER_0_56_220
*3932 FILLER_0_56_231
*3933 FILLER_0_56_243
*3934 FILLER_0_56_251
*3935 FILLER_0_56_253
*3936 FILLER_0_56_265
*3937 FILLER_0_56_27
*3938 FILLER_0_56_273
*3939 FILLER_0_56_277
*3940 FILLER_0_56_29
*3941 FILLER_0_56_298
*3942 FILLER_0_56_3
*3943 FILLER_0_56_309
*3944 FILLER_0_56_332
*3945 FILLER_0_56_344
*3946 FILLER_0_56_356
*3947 FILLER_0_56_365
*3948 FILLER_0_56_389
*3949 FILLER_0_56_401
*3950 FILLER_0_56_41
*3951 FILLER_0_56_413
*3952 FILLER_0_56_419
*3953 FILLER_0_56_421
*3954 FILLER_0_56_433
*3955 FILLER_0_56_445
*3956 FILLER_0_56_457
*3957 FILLER_0_56_469
*3958 FILLER_0_56_475
*3959 FILLER_0_56_477
*3960 FILLER_0_56_489
*3961 FILLER_0_56_501
*3962 FILLER_0_56_513
*3963 FILLER_0_56_525
*3964 FILLER_0_56_53
*3965 FILLER_0_56_531
*3966 FILLER_0_56_533
*3967 FILLER_0_56_545
*3968 FILLER_0_56_557
*3969 FILLER_0_56_569
*3970 FILLER_0_56_581
*3971 FILLER_0_56_587
*3972 FILLER_0_56_589
*3973 FILLER_0_56_601
*3974 FILLER_0_56_613
*3975 FILLER_0_56_65
*3976 FILLER_0_56_77
*3977 FILLER_0_56_83
*3978 FILLER_0_56_85
*3979 FILLER_0_56_97
*3980 FILLER_0_57_105
*3981 FILLER_0_57_111
*3982 FILLER_0_57_113
*3983 FILLER_0_57_125
*3984 FILLER_0_57_137
*3985 FILLER_0_57_149
*3986 FILLER_0_57_15
*3987 FILLER_0_57_161
*3988 FILLER_0_57_167
*3989 FILLER_0_57_169
*3990 FILLER_0_57_181
*3991 FILLER_0_57_193
*3992 FILLER_0_57_215
*3993 FILLER_0_57_223
*3994 FILLER_0_57_225
*3995 FILLER_0_57_237
*3996 FILLER_0_57_245
*3997 FILLER_0_57_251
*3998 FILLER_0_57_262
*3999 FILLER_0_57_27
*4000 FILLER_0_57_274
*4001 FILLER_0_57_281
*4002 FILLER_0_57_293
*4003 FILLER_0_57_3
*4004 FILLER_0_57_369
*4005 FILLER_0_57_381
*4006 FILLER_0_57_389
*4007 FILLER_0_57_39
*4008 FILLER_0_57_393
*4009 FILLER_0_57_405
*4010 FILLER_0_57_417
*4011 FILLER_0_57_429
*4012 FILLER_0_57_441
*4013 FILLER_0_57_447
*4014 FILLER_0_57_449
*4015 FILLER_0_57_461
*4016 FILLER_0_57_473
*4017 FILLER_0_57_485
*4018 FILLER_0_57_497
*4019 FILLER_0_57_503
*4020 FILLER_0_57_505
*4021 FILLER_0_57_51
*4022 FILLER_0_57_517
*4023 FILLER_0_57_529
*4024 FILLER_0_57_541
*4025 FILLER_0_57_55
*4026 FILLER_0_57_553
*4027 FILLER_0_57_559
*4028 FILLER_0_57_561
*4029 FILLER_0_57_57
*4030 FILLER_0_57_573
*4031 FILLER_0_57_585
*4032 FILLER_0_57_597
*4033 FILLER_0_57_609
*4034 FILLER_0_57_615
*4035 FILLER_0_57_617
*4036 FILLER_0_57_69
*4037 FILLER_0_57_81
*4038 FILLER_0_57_93
*4039 FILLER_0_58_109
*4040 FILLER_0_58_121
*4041 FILLER_0_58_133
*4042 FILLER_0_58_139
*4043 FILLER_0_58_141
*4044 FILLER_0_58_153
*4045 FILLER_0_58_165
*4046 FILLER_0_58_189
*4047 FILLER_0_58_19
*4048 FILLER_0_58_195
*4049 FILLER_0_58_197
*4050 FILLER_0_58_209
*4051 FILLER_0_58_221
*4052 FILLER_0_58_233
*4053 FILLER_0_58_239
*4054 FILLER_0_58_243
*4055 FILLER_0_58_251
*4056 FILLER_0_58_253
*4057 FILLER_0_58_265
*4058 FILLER_0_58_27
*4059 FILLER_0_58_277
*4060 FILLER_0_58_285
*4061 FILLER_0_58_29
*4062 FILLER_0_58_309
*4063 FILLER_0_58_335
*4064 FILLER_0_58_365
*4065 FILLER_0_58_377
*4066 FILLER_0_58_389
*4067 FILLER_0_58_401
*4068 FILLER_0_58_41
*4069 FILLER_0_58_413
*4070 FILLER_0_58_419
*4071 FILLER_0_58_421
*4072 FILLER_0_58_433
*4073 FILLER_0_58_445
*4074 FILLER_0_58_457
*4075 FILLER_0_58_469
*4076 FILLER_0_58_475
*4077 FILLER_0_58_477
*4078 FILLER_0_58_489
*4079 FILLER_0_58_501
*4080 FILLER_0_58_513
*4081 FILLER_0_58_525
*4082 FILLER_0_58_53
*4083 FILLER_0_58_531
*4084 FILLER_0_58_533
*4085 FILLER_0_58_545
*4086 FILLER_0_58_557
*4087 FILLER_0_58_569
*4088 FILLER_0_58_581
*4089 FILLER_0_58_587
*4090 FILLER_0_58_589
*4091 FILLER_0_58_601
*4092 FILLER_0_58_613
*4093 FILLER_0_58_621
*4094 FILLER_0_58_65
*4095 FILLER_0_58_7
*4096 FILLER_0_58_77
*4097 FILLER_0_58_83
*4098 FILLER_0_58_85
*4099 FILLER_0_58_97
*4100 FILLER_0_59_105
*4101 FILLER_0_59_111
*4102 FILLER_0_59_113
*4103 FILLER_0_59_125
*4104 FILLER_0_59_137
*4105 FILLER_0_59_149
*4106 FILLER_0_59_15
*4107 FILLER_0_59_161
*4108 FILLER_0_59_167
*4109 FILLER_0_59_169
*4110 FILLER_0_59_181
*4111 FILLER_0_59_193
*4112 FILLER_0_59_205
*4113 FILLER_0_59_217
*4114 FILLER_0_59_223
*4115 FILLER_0_59_230
*4116 FILLER_0_59_234
*4117 FILLER_0_59_255
*4118 FILLER_0_59_267
*4119 FILLER_0_59_27
*4120 FILLER_0_59_279
*4121 FILLER_0_59_281
*4122 FILLER_0_59_293
*4123 FILLER_0_59_3
*4124 FILLER_0_59_305
*4125 FILLER_0_59_312
*4126 FILLER_0_59_333
*4127 FILLER_0_59_337
*4128 FILLER_0_59_349
*4129 FILLER_0_59_361
*4130 FILLER_0_59_373
*4131 FILLER_0_59_385
*4132 FILLER_0_59_39
*4133 FILLER_0_59_391
*4134 FILLER_0_59_393
*4135 FILLER_0_59_405
*4136 FILLER_0_59_417
*4137 FILLER_0_59_429
*4138 FILLER_0_59_441
*4139 FILLER_0_59_447
*4140 FILLER_0_59_449
*4141 FILLER_0_59_461
*4142 FILLER_0_59_473
*4143 FILLER_0_59_485
*4144 FILLER_0_59_497
*4145 FILLER_0_59_503
*4146 FILLER_0_59_505
*4147 FILLER_0_59_51
*4148 FILLER_0_59_517
*4149 FILLER_0_59_529
*4150 FILLER_0_59_541
*4151 FILLER_0_59_55
*4152 FILLER_0_59_553
*4153 FILLER_0_59_559
*4154 FILLER_0_59_561
*4155 FILLER_0_59_57
*4156 FILLER_0_59_573
*4157 FILLER_0_59_585
*4158 FILLER_0_59_597
*4159 FILLER_0_59_609
*4160 FILLER_0_59_615
*4161 FILLER_0_59_617
*4162 FILLER_0_59_69
*4163 FILLER_0_59_81
*4164 FILLER_0_59_93
*4165 FILLER_0_5_105
*4166 FILLER_0_5_111
*4167 FILLER_0_5_113
*4168 FILLER_0_5_125
*4169 FILLER_0_5_137
*4170 FILLER_0_5_149
*4171 FILLER_0_5_15
*4172 FILLER_0_5_161
*4173 FILLER_0_5_167
*4174 FILLER_0_5_169
*4175 FILLER_0_5_181
*4176 FILLER_0_5_216
*4177 FILLER_0_5_225
*4178 FILLER_0_5_237
*4179 FILLER_0_5_249
*4180 FILLER_0_5_261
*4181 FILLER_0_5_27
*4182 FILLER_0_5_273
*4183 FILLER_0_5_279
*4184 FILLER_0_5_281
*4185 FILLER_0_5_293
*4186 FILLER_0_5_3
*4187 FILLER_0_5_305
*4188 FILLER_0_5_317
*4189 FILLER_0_5_329
*4190 FILLER_0_5_335
*4191 FILLER_0_5_337
*4192 FILLER_0_5_349
*4193 FILLER_0_5_361
*4194 FILLER_0_5_373
*4195 FILLER_0_5_385
*4196 FILLER_0_5_39
*4197 FILLER_0_5_391
*4198 FILLER_0_5_393
*4199 FILLER_0_5_405
*4200 FILLER_0_5_417
*4201 FILLER_0_5_429
*4202 FILLER_0_5_441
*4203 FILLER_0_5_447
*4204 FILLER_0_5_449
*4205 FILLER_0_5_461
*4206 FILLER_0_5_473
*4207 FILLER_0_5_485
*4208 FILLER_0_5_497
*4209 FILLER_0_5_503
*4210 FILLER_0_5_505
*4211 FILLER_0_5_51
*4212 FILLER_0_5_517
*4213 FILLER_0_5_529
*4214 FILLER_0_5_541
*4215 FILLER_0_5_55
*4216 FILLER_0_5_553
*4217 FILLER_0_5_559
*4218 FILLER_0_5_561
*4219 FILLER_0_5_57
*4220 FILLER_0_5_573
*4221 FILLER_0_5_585
*4222 FILLER_0_5_597
*4223 FILLER_0_5_609
*4224 FILLER_0_5_615
*4225 FILLER_0_5_617
*4226 FILLER_0_5_69
*4227 FILLER_0_5_81
*4228 FILLER_0_5_93
*4229 FILLER_0_60_109
*4230 FILLER_0_60_121
*4231 FILLER_0_60_133
*4232 FILLER_0_60_139
*4233 FILLER_0_60_141
*4234 FILLER_0_60_15
*4235 FILLER_0_60_153
*4236 FILLER_0_60_165
*4237 FILLER_0_60_177
*4238 FILLER_0_60_189
*4239 FILLER_0_60_195
*4240 FILLER_0_60_197
*4241 FILLER_0_60_209
*4242 FILLER_0_60_246
*4243 FILLER_0_60_253
*4244 FILLER_0_60_265
*4245 FILLER_0_60_27
*4246 FILLER_0_60_277
*4247 FILLER_0_60_289
*4248 FILLER_0_60_29
*4249 FILLER_0_60_3
*4250 FILLER_0_60_301
*4251 FILLER_0_60_307
*4252 FILLER_0_60_309
*4253 FILLER_0_60_321
*4254 FILLER_0_60_333
*4255 FILLER_0_60_345
*4256 FILLER_0_60_357
*4257 FILLER_0_60_363
*4258 FILLER_0_60_365
*4259 FILLER_0_60_377
*4260 FILLER_0_60_389
*4261 FILLER_0_60_401
*4262 FILLER_0_60_41
*4263 FILLER_0_60_413
*4264 FILLER_0_60_419
*4265 FILLER_0_60_421
*4266 FILLER_0_60_433
*4267 FILLER_0_60_445
*4268 FILLER_0_60_457
*4269 FILLER_0_60_469
*4270 FILLER_0_60_475
*4271 FILLER_0_60_477
*4272 FILLER_0_60_489
*4273 FILLER_0_60_501
*4274 FILLER_0_60_513
*4275 FILLER_0_60_525
*4276 FILLER_0_60_53
*4277 FILLER_0_60_531
*4278 FILLER_0_60_533
*4279 FILLER_0_60_545
*4280 FILLER_0_60_557
*4281 FILLER_0_60_569
*4282 FILLER_0_60_581
*4283 FILLER_0_60_587
*4284 FILLER_0_60_589
*4285 FILLER_0_60_601
*4286 FILLER_0_60_613
*4287 FILLER_0_60_65
*4288 FILLER_0_60_77
*4289 FILLER_0_60_83
*4290 FILLER_0_60_85
*4291 FILLER_0_60_97
*4292 FILLER_0_61_105
*4293 FILLER_0_61_111
*4294 FILLER_0_61_113
*4295 FILLER_0_61_125
*4296 FILLER_0_61_137
*4297 FILLER_0_61_149
*4298 FILLER_0_61_15
*4299 FILLER_0_61_161
*4300 FILLER_0_61_167
*4301 FILLER_0_61_169
*4302 FILLER_0_61_181
*4303 FILLER_0_61_193
*4304 FILLER_0_61_205
*4305 FILLER_0_61_217
*4306 FILLER_0_61_223
*4307 FILLER_0_61_225
*4308 FILLER_0_61_237
*4309 FILLER_0_61_249
*4310 FILLER_0_61_261
*4311 FILLER_0_61_27
*4312 FILLER_0_61_273
*4313 FILLER_0_61_279
*4314 FILLER_0_61_281
*4315 FILLER_0_61_293
*4316 FILLER_0_61_3
*4317 FILLER_0_61_305
*4318 FILLER_0_61_317
*4319 FILLER_0_61_329
*4320 FILLER_0_61_335
*4321 FILLER_0_61_337
*4322 FILLER_0_61_349
*4323 FILLER_0_61_361
*4324 FILLER_0_61_373
*4325 FILLER_0_61_385
*4326 FILLER_0_61_39
*4327 FILLER_0_61_391
*4328 FILLER_0_61_393
*4329 FILLER_0_61_405
*4330 FILLER_0_61_417
*4331 FILLER_0_61_429
*4332 FILLER_0_61_441
*4333 FILLER_0_61_447
*4334 FILLER_0_61_449
*4335 FILLER_0_61_461
*4336 FILLER_0_61_473
*4337 FILLER_0_61_485
*4338 FILLER_0_61_497
*4339 FILLER_0_61_503
*4340 FILLER_0_61_505
*4341 FILLER_0_61_51
*4342 FILLER_0_61_517
*4343 FILLER_0_61_529
*4344 FILLER_0_61_541
*4345 FILLER_0_61_55
*4346 FILLER_0_61_553
*4347 FILLER_0_61_559
*4348 FILLER_0_61_561
*4349 FILLER_0_61_57
*4350 FILLER_0_61_573
*4351 FILLER_0_61_585
*4352 FILLER_0_61_597
*4353 FILLER_0_61_609
*4354 FILLER_0_61_615
*4355 FILLER_0_61_617
*4356 FILLER_0_61_69
*4357 FILLER_0_61_81
*4358 FILLER_0_61_93
*4359 FILLER_0_62_109
*4360 FILLER_0_62_138
*4361 FILLER_0_62_141
*4362 FILLER_0_62_15
*4363 FILLER_0_62_153
*4364 FILLER_0_62_165
*4365 FILLER_0_62_177
*4366 FILLER_0_62_189
*4367 FILLER_0_62_195
*4368 FILLER_0_62_197
*4369 FILLER_0_62_209
*4370 FILLER_0_62_221
*4371 FILLER_0_62_233
*4372 FILLER_0_62_245
*4373 FILLER_0_62_251
*4374 FILLER_0_62_253
*4375 FILLER_0_62_265
*4376 FILLER_0_62_27
*4377 FILLER_0_62_277
*4378 FILLER_0_62_289
*4379 FILLER_0_62_29
*4380 FILLER_0_62_3
*4381 FILLER_0_62_301
*4382 FILLER_0_62_307
*4383 FILLER_0_62_309
*4384 FILLER_0_62_321
*4385 FILLER_0_62_333
*4386 FILLER_0_62_345
*4387 FILLER_0_62_357
*4388 FILLER_0_62_363
*4389 FILLER_0_62_365
*4390 FILLER_0_62_377
*4391 FILLER_0_62_389
*4392 FILLER_0_62_401
*4393 FILLER_0_62_41
*4394 FILLER_0_62_413
*4395 FILLER_0_62_419
*4396 FILLER_0_62_421
*4397 FILLER_0_62_433
*4398 FILLER_0_62_445
*4399 FILLER_0_62_457
*4400 FILLER_0_62_469
*4401 FILLER_0_62_475
*4402 FILLER_0_62_477
*4403 FILLER_0_62_489
*4404 FILLER_0_62_501
*4405 FILLER_0_62_513
*4406 FILLER_0_62_525
*4407 FILLER_0_62_53
*4408 FILLER_0_62_531
*4409 FILLER_0_62_533
*4410 FILLER_0_62_545
*4411 FILLER_0_62_557
*4412 FILLER_0_62_569
*4413 FILLER_0_62_581
*4414 FILLER_0_62_587
*4415 FILLER_0_62_589
*4416 FILLER_0_62_601
*4417 FILLER_0_62_613
*4418 FILLER_0_62_65
*4419 FILLER_0_62_77
*4420 FILLER_0_62_83
*4421 FILLER_0_62_85
*4422 FILLER_0_62_97
*4423 FILLER_0_63_105
*4424 FILLER_0_63_111
*4425 FILLER_0_63_113
*4426 FILLER_0_63_125
*4427 FILLER_0_63_137
*4428 FILLER_0_63_149
*4429 FILLER_0_63_15
*4430 FILLER_0_63_161
*4431 FILLER_0_63_167
*4432 FILLER_0_63_169
*4433 FILLER_0_63_181
*4434 FILLER_0_63_193
*4435 FILLER_0_63_205
*4436 FILLER_0_63_217
*4437 FILLER_0_63_223
*4438 FILLER_0_63_225
*4439 FILLER_0_63_237
*4440 FILLER_0_63_249
*4441 FILLER_0_63_261
*4442 FILLER_0_63_27
*4443 FILLER_0_63_273
*4444 FILLER_0_63_279
*4445 FILLER_0_63_281
*4446 FILLER_0_63_293
*4447 FILLER_0_63_3
*4448 FILLER_0_63_305
*4449 FILLER_0_63_317
*4450 FILLER_0_63_329
*4451 FILLER_0_63_335
*4452 FILLER_0_63_337
*4453 FILLER_0_63_349
*4454 FILLER_0_63_361
*4455 FILLER_0_63_373
*4456 FILLER_0_63_385
*4457 FILLER_0_63_39
*4458 FILLER_0_63_391
*4459 FILLER_0_63_393
*4460 FILLER_0_63_405
*4461 FILLER_0_63_417
*4462 FILLER_0_63_429
*4463 FILLER_0_63_441
*4464 FILLER_0_63_447
*4465 FILLER_0_63_449
*4466 FILLER_0_63_461
*4467 FILLER_0_63_473
*4468 FILLER_0_63_485
*4469 FILLER_0_63_497
*4470 FILLER_0_63_503
*4471 FILLER_0_63_505
*4472 FILLER_0_63_51
*4473 FILLER_0_63_517
*4474 FILLER_0_63_529
*4475 FILLER_0_63_541
*4476 FILLER_0_63_55
*4477 FILLER_0_63_553
*4478 FILLER_0_63_559
*4479 FILLER_0_63_561
*4480 FILLER_0_63_57
*4481 FILLER_0_63_573
*4482 FILLER_0_63_585
*4483 FILLER_0_63_597
*4484 FILLER_0_63_609
*4485 FILLER_0_63_615
*4486 FILLER_0_63_617
*4487 FILLER_0_63_69
*4488 FILLER_0_63_81
*4489 FILLER_0_63_93
*4490 FILLER_0_64_109
*4491 FILLER_0_64_121
*4492 FILLER_0_64_133
*4493 FILLER_0_64_139
*4494 FILLER_0_64_141
*4495 FILLER_0_64_15
*4496 FILLER_0_64_153
*4497 FILLER_0_64_165
*4498 FILLER_0_64_177
*4499 FILLER_0_64_189
*4500 FILLER_0_64_195
*4501 FILLER_0_64_197
*4502 FILLER_0_64_209
*4503 FILLER_0_64_221
*4504 FILLER_0_64_233
*4505 FILLER_0_64_245
*4506 FILLER_0_64_251
*4507 FILLER_0_64_253
*4508 FILLER_0_64_265
*4509 FILLER_0_64_27
*4510 FILLER_0_64_277
*4511 FILLER_0_64_289
*4512 FILLER_0_64_29
*4513 FILLER_0_64_3
*4514 FILLER_0_64_301
*4515 FILLER_0_64_307
*4516 FILLER_0_64_309
*4517 FILLER_0_64_321
*4518 FILLER_0_64_333
*4519 FILLER_0_64_345
*4520 FILLER_0_64_357
*4521 FILLER_0_64_363
*4522 FILLER_0_64_365
*4523 FILLER_0_64_377
*4524 FILLER_0_64_389
*4525 FILLER_0_64_401
*4526 FILLER_0_64_41
*4527 FILLER_0_64_413
*4528 FILLER_0_64_419
*4529 FILLER_0_64_421
*4530 FILLER_0_64_433
*4531 FILLER_0_64_445
*4532 FILLER_0_64_457
*4533 FILLER_0_64_469
*4534 FILLER_0_64_475
*4535 FILLER_0_64_477
*4536 FILLER_0_64_489
*4537 FILLER_0_64_501
*4538 FILLER_0_64_513
*4539 FILLER_0_64_525
*4540 FILLER_0_64_53
*4541 FILLER_0_64_531
*4542 FILLER_0_64_533
*4543 FILLER_0_64_545
*4544 FILLER_0_64_557
*4545 FILLER_0_64_569
*4546 FILLER_0_64_581
*4547 FILLER_0_64_587
*4548 FILLER_0_64_589
*4549 FILLER_0_64_601
*4550 FILLER_0_64_613
*4551 FILLER_0_64_65
*4552 FILLER_0_64_77
*4553 FILLER_0_64_83
*4554 FILLER_0_64_85
*4555 FILLER_0_64_97
*4556 FILLER_0_65_105
*4557 FILLER_0_65_111
*4558 FILLER_0_65_113
*4559 FILLER_0_65_125
*4560 FILLER_0_65_137
*4561 FILLER_0_65_149
*4562 FILLER_0_65_15
*4563 FILLER_0_65_161
*4564 FILLER_0_65_167
*4565 FILLER_0_65_169
*4566 FILLER_0_65_181
*4567 FILLER_0_65_193
*4568 FILLER_0_65_205
*4569 FILLER_0_65_217
*4570 FILLER_0_65_223
*4571 FILLER_0_65_225
*4572 FILLER_0_65_237
*4573 FILLER_0_65_249
*4574 FILLER_0_65_261
*4575 FILLER_0_65_27
*4576 FILLER_0_65_273
*4577 FILLER_0_65_279
*4578 FILLER_0_65_281
*4579 FILLER_0_65_293
*4580 FILLER_0_65_3
*4581 FILLER_0_65_305
*4582 FILLER_0_65_317
*4583 FILLER_0_65_329
*4584 FILLER_0_65_335
*4585 FILLER_0_65_337
*4586 FILLER_0_65_349
*4587 FILLER_0_65_361
*4588 FILLER_0_65_373
*4589 FILLER_0_65_385
*4590 FILLER_0_65_39
*4591 FILLER_0_65_391
*4592 FILLER_0_65_393
*4593 FILLER_0_65_405
*4594 FILLER_0_65_417
*4595 FILLER_0_65_429
*4596 FILLER_0_65_441
*4597 FILLER_0_65_447
*4598 FILLER_0_65_449
*4599 FILLER_0_65_461
*4600 FILLER_0_65_473
*4601 FILLER_0_65_485
*4602 FILLER_0_65_497
*4603 FILLER_0_65_503
*4604 FILLER_0_65_505
*4605 FILLER_0_65_51
*4606 FILLER_0_65_517
*4607 FILLER_0_65_529
*4608 FILLER_0_65_541
*4609 FILLER_0_65_55
*4610 FILLER_0_65_553
*4611 FILLER_0_65_559
*4612 FILLER_0_65_561
*4613 FILLER_0_65_57
*4614 FILLER_0_65_573
*4615 FILLER_0_65_585
*4616 FILLER_0_65_597
*4617 FILLER_0_65_609
*4618 FILLER_0_65_615
*4619 FILLER_0_65_617
*4620 FILLER_0_65_69
*4621 FILLER_0_65_81
*4622 FILLER_0_65_93
*4623 FILLER_0_66_109
*4624 FILLER_0_66_121
*4625 FILLER_0_66_133
*4626 FILLER_0_66_139
*4627 FILLER_0_66_141
*4628 FILLER_0_66_15
*4629 FILLER_0_66_153
*4630 FILLER_0_66_165
*4631 FILLER_0_66_177
*4632 FILLER_0_66_189
*4633 FILLER_0_66_195
*4634 FILLER_0_66_197
*4635 FILLER_0_66_209
*4636 FILLER_0_66_221
*4637 FILLER_0_66_233
*4638 FILLER_0_66_245
*4639 FILLER_0_66_251
*4640 FILLER_0_66_253
*4641 FILLER_0_66_265
*4642 FILLER_0_66_27
*4643 FILLER_0_66_277
*4644 FILLER_0_66_289
*4645 FILLER_0_66_29
*4646 FILLER_0_66_3
*4647 FILLER_0_66_301
*4648 FILLER_0_66_307
*4649 FILLER_0_66_309
*4650 FILLER_0_66_321
*4651 FILLER_0_66_333
*4652 FILLER_0_66_345
*4653 FILLER_0_66_357
*4654 FILLER_0_66_363
*4655 FILLER_0_66_365
*4656 FILLER_0_66_377
*4657 FILLER_0_66_389
*4658 FILLER_0_66_401
*4659 FILLER_0_66_41
*4660 FILLER_0_66_413
*4661 FILLER_0_66_419
*4662 FILLER_0_66_421
*4663 FILLER_0_66_433
*4664 FILLER_0_66_445
*4665 FILLER_0_66_457
*4666 FILLER_0_66_469
*4667 FILLER_0_66_475
*4668 FILLER_0_66_477
*4669 FILLER_0_66_489
*4670 FILLER_0_66_501
*4671 FILLER_0_66_513
*4672 FILLER_0_66_525
*4673 FILLER_0_66_53
*4674 FILLER_0_66_531
*4675 FILLER_0_66_533
*4676 FILLER_0_66_545
*4677 FILLER_0_66_557
*4678 FILLER_0_66_569
*4679 FILLER_0_66_581
*4680 FILLER_0_66_587
*4681 FILLER_0_66_589
*4682 FILLER_0_66_601
*4683 FILLER_0_66_613
*4684 FILLER_0_66_65
*4685 FILLER_0_66_77
*4686 FILLER_0_66_83
*4687 FILLER_0_66_85
*4688 FILLER_0_66_97
*4689 FILLER_0_67_105
*4690 FILLER_0_67_111
*4691 FILLER_0_67_113
*4692 FILLER_0_67_125
*4693 FILLER_0_67_137
*4694 FILLER_0_67_149
*4695 FILLER_0_67_15
*4696 FILLER_0_67_161
*4697 FILLER_0_67_167
*4698 FILLER_0_67_169
*4699 FILLER_0_67_181
*4700 FILLER_0_67_193
*4701 FILLER_0_67_205
*4702 FILLER_0_67_217
*4703 FILLER_0_67_223
*4704 FILLER_0_67_225
*4705 FILLER_0_67_237
*4706 FILLER_0_67_249
*4707 FILLER_0_67_261
*4708 FILLER_0_67_27
*4709 FILLER_0_67_273
*4710 FILLER_0_67_279
*4711 FILLER_0_67_281
*4712 FILLER_0_67_293
*4713 FILLER_0_67_3
*4714 FILLER_0_67_305
*4715 FILLER_0_67_317
*4716 FILLER_0_67_329
*4717 FILLER_0_67_335
*4718 FILLER_0_67_337
*4719 FILLER_0_67_349
*4720 FILLER_0_67_361
*4721 FILLER_0_67_373
*4722 FILLER_0_67_385
*4723 FILLER_0_67_39
*4724 FILLER_0_67_391
*4725 FILLER_0_67_393
*4726 FILLER_0_67_405
*4727 FILLER_0_67_417
*4728 FILLER_0_67_429
*4729 FILLER_0_67_441
*4730 FILLER_0_67_447
*4731 FILLER_0_67_449
*4732 FILLER_0_67_461
*4733 FILLER_0_67_473
*4734 FILLER_0_67_485
*4735 FILLER_0_67_497
*4736 FILLER_0_67_503
*4737 FILLER_0_67_505
*4738 FILLER_0_67_51
*4739 FILLER_0_67_517
*4740 FILLER_0_67_529
*4741 FILLER_0_67_541
*4742 FILLER_0_67_55
*4743 FILLER_0_67_553
*4744 FILLER_0_67_559
*4745 FILLER_0_67_561
*4746 FILLER_0_67_57
*4747 FILLER_0_67_573
*4748 FILLER_0_67_585
*4749 FILLER_0_67_597
*4750 FILLER_0_67_609
*4751 FILLER_0_67_615
*4752 FILLER_0_67_617
*4753 FILLER_0_67_69
*4754 FILLER_0_67_81
*4755 FILLER_0_67_93
*4756 FILLER_0_68_109
*4757 FILLER_0_68_121
*4758 FILLER_0_68_133
*4759 FILLER_0_68_139
*4760 FILLER_0_68_141
*4761 FILLER_0_68_15
*4762 FILLER_0_68_153
*4763 FILLER_0_68_165
*4764 FILLER_0_68_177
*4765 FILLER_0_68_189
*4766 FILLER_0_68_195
*4767 FILLER_0_68_197
*4768 FILLER_0_68_209
*4769 FILLER_0_68_221
*4770 FILLER_0_68_233
*4771 FILLER_0_68_245
*4772 FILLER_0_68_251
*4773 FILLER_0_68_253
*4774 FILLER_0_68_265
*4775 FILLER_0_68_27
*4776 FILLER_0_68_277
*4777 FILLER_0_68_289
*4778 FILLER_0_68_29
*4779 FILLER_0_68_3
*4780 FILLER_0_68_301
*4781 FILLER_0_68_307
*4782 FILLER_0_68_309
*4783 FILLER_0_68_321
*4784 FILLER_0_68_333
*4785 FILLER_0_68_345
*4786 FILLER_0_68_357
*4787 FILLER_0_68_363
*4788 FILLER_0_68_365
*4789 FILLER_0_68_377
*4790 FILLER_0_68_389
*4791 FILLER_0_68_401
*4792 FILLER_0_68_41
*4793 FILLER_0_68_413
*4794 FILLER_0_68_419
*4795 FILLER_0_68_421
*4796 FILLER_0_68_433
*4797 FILLER_0_68_445
*4798 FILLER_0_68_457
*4799 FILLER_0_68_469
*4800 FILLER_0_68_475
*4801 FILLER_0_68_477
*4802 FILLER_0_68_489
*4803 FILLER_0_68_501
*4804 FILLER_0_68_513
*4805 FILLER_0_68_525
*4806 FILLER_0_68_53
*4807 FILLER_0_68_531
*4808 FILLER_0_68_533
*4809 FILLER_0_68_545
*4810 FILLER_0_68_557
*4811 FILLER_0_68_569
*4812 FILLER_0_68_581
*4813 FILLER_0_68_587
*4814 FILLER_0_68_589
*4815 FILLER_0_68_601
*4816 FILLER_0_68_613
*4817 FILLER_0_68_65
*4818 FILLER_0_68_77
*4819 FILLER_0_68_83
*4820 FILLER_0_68_85
*4821 FILLER_0_68_97
*4822 FILLER_0_69_105
*4823 FILLER_0_69_111
*4824 FILLER_0_69_113
*4825 FILLER_0_69_125
*4826 FILLER_0_69_137
*4827 FILLER_0_69_149
*4828 FILLER_0_69_15
*4829 FILLER_0_69_161
*4830 FILLER_0_69_167
*4831 FILLER_0_69_169
*4832 FILLER_0_69_181
*4833 FILLER_0_69_193
*4834 FILLER_0_69_205
*4835 FILLER_0_69_217
*4836 FILLER_0_69_223
*4837 FILLER_0_69_225
*4838 FILLER_0_69_237
*4839 FILLER_0_69_249
*4840 FILLER_0_69_261
*4841 FILLER_0_69_27
*4842 FILLER_0_69_273
*4843 FILLER_0_69_279
*4844 FILLER_0_69_281
*4845 FILLER_0_69_293
*4846 FILLER_0_69_3
*4847 FILLER_0_69_305
*4848 FILLER_0_69_317
*4849 FILLER_0_69_329
*4850 FILLER_0_69_335
*4851 FILLER_0_69_337
*4852 FILLER_0_69_349
*4853 FILLER_0_69_361
*4854 FILLER_0_69_373
*4855 FILLER_0_69_385
*4856 FILLER_0_69_39
*4857 FILLER_0_69_391
*4858 FILLER_0_69_393
*4859 FILLER_0_69_405
*4860 FILLER_0_69_417
*4861 FILLER_0_69_429
*4862 FILLER_0_69_441
*4863 FILLER_0_69_447
*4864 FILLER_0_69_449
*4865 FILLER_0_69_461
*4866 FILLER_0_69_473
*4867 FILLER_0_69_485
*4868 FILLER_0_69_497
*4869 FILLER_0_69_503
*4870 FILLER_0_69_505
*4871 FILLER_0_69_51
*4872 FILLER_0_69_517
*4873 FILLER_0_69_529
*4874 FILLER_0_69_541
*4875 FILLER_0_69_55
*4876 FILLER_0_69_553
*4877 FILLER_0_69_559
*4878 FILLER_0_69_561
*4879 FILLER_0_69_57
*4880 FILLER_0_69_573
*4881 FILLER_0_69_585
*4882 FILLER_0_69_597
*4883 FILLER_0_69_609
*4884 FILLER_0_69_615
*4885 FILLER_0_69_617
*4886 FILLER_0_69_69
*4887 FILLER_0_69_81
*4888 FILLER_0_69_93
*4889 FILLER_0_6_109
*4890 FILLER_0_6_121
*4891 FILLER_0_6_133
*4892 FILLER_0_6_139
*4893 FILLER_0_6_141
*4894 FILLER_0_6_15
*4895 FILLER_0_6_153
*4896 FILLER_0_6_165
*4897 FILLER_0_6_177
*4898 FILLER_0_6_189
*4899 FILLER_0_6_195
*4900 FILLER_0_6_197
*4901 FILLER_0_6_205
*4902 FILLER_0_6_251
*4903 FILLER_0_6_253
*4904 FILLER_0_6_265
*4905 FILLER_0_6_27
*4906 FILLER_0_6_277
*4907 FILLER_0_6_289
*4908 FILLER_0_6_29
*4909 FILLER_0_6_3
*4910 FILLER_0_6_301
*4911 FILLER_0_6_307
*4912 FILLER_0_6_309
*4913 FILLER_0_6_321
*4914 FILLER_0_6_333
*4915 FILLER_0_6_345
*4916 FILLER_0_6_357
*4917 FILLER_0_6_363
*4918 FILLER_0_6_365
*4919 FILLER_0_6_377
*4920 FILLER_0_6_389
*4921 FILLER_0_6_401
*4922 FILLER_0_6_41
*4923 FILLER_0_6_413
*4924 FILLER_0_6_419
*4925 FILLER_0_6_421
*4926 FILLER_0_6_433
*4927 FILLER_0_6_445
*4928 FILLER_0_6_457
*4929 FILLER_0_6_469
*4930 FILLER_0_6_475
*4931 FILLER_0_6_477
*4932 FILLER_0_6_489
*4933 FILLER_0_6_501
*4934 FILLER_0_6_513
*4935 FILLER_0_6_525
*4936 FILLER_0_6_53
*4937 FILLER_0_6_531
*4938 FILLER_0_6_533
*4939 FILLER_0_6_545
*4940 FILLER_0_6_557
*4941 FILLER_0_6_569
*4942 FILLER_0_6_581
*4943 FILLER_0_6_587
*4944 FILLER_0_6_589
*4945 FILLER_0_6_601
*4946 FILLER_0_6_613
*4947 FILLER_0_6_65
*4948 FILLER_0_6_77
*4949 FILLER_0_6_83
*4950 FILLER_0_6_85
*4951 FILLER_0_6_97
*4952 FILLER_0_70_109
*4953 FILLER_0_70_121
*4954 FILLER_0_70_133
*4955 FILLER_0_70_139
*4956 FILLER_0_70_141
*4957 FILLER_0_70_15
*4958 FILLER_0_70_153
*4959 FILLER_0_70_165
*4960 FILLER_0_70_177
*4961 FILLER_0_70_189
*4962 FILLER_0_70_195
*4963 FILLER_0_70_197
*4964 FILLER_0_70_209
*4965 FILLER_0_70_221
*4966 FILLER_0_70_233
*4967 FILLER_0_70_245
*4968 FILLER_0_70_251
*4969 FILLER_0_70_253
*4970 FILLER_0_70_265
*4971 FILLER_0_70_27
*4972 FILLER_0_70_277
*4973 FILLER_0_70_289
*4974 FILLER_0_70_29
*4975 FILLER_0_70_3
*4976 FILLER_0_70_301
*4977 FILLER_0_70_307
*4978 FILLER_0_70_309
*4979 FILLER_0_70_321
*4980 FILLER_0_70_333
*4981 FILLER_0_70_345
*4982 FILLER_0_70_357
*4983 FILLER_0_70_363
*4984 FILLER_0_70_365
*4985 FILLER_0_70_377
*4986 FILLER_0_70_389
*4987 FILLER_0_70_401
*4988 FILLER_0_70_41
*4989 FILLER_0_70_413
*4990 FILLER_0_70_419
*4991 FILLER_0_70_421
*4992 FILLER_0_70_433
*4993 FILLER_0_70_445
*4994 FILLER_0_70_457
*4995 FILLER_0_70_469
*4996 FILLER_0_70_475
*4997 FILLER_0_70_477
*4998 FILLER_0_70_489
*4999 FILLER_0_70_501
*5000 FILLER_0_70_513
*5001 FILLER_0_70_525
*5002 FILLER_0_70_53
*5003 FILLER_0_70_531
*5004 FILLER_0_70_533
*5005 FILLER_0_70_545
*5006 FILLER_0_70_557
*5007 FILLER_0_70_569
*5008 FILLER_0_70_581
*5009 FILLER_0_70_587
*5010 FILLER_0_70_589
*5011 FILLER_0_70_601
*5012 FILLER_0_70_613
*5013 FILLER_0_70_65
*5014 FILLER_0_70_77
*5015 FILLER_0_70_83
*5016 FILLER_0_70_85
*5017 FILLER_0_70_97
*5018 FILLER_0_71_105
*5019 FILLER_0_71_111
*5020 FILLER_0_71_113
*5021 FILLER_0_71_125
*5022 FILLER_0_71_137
*5023 FILLER_0_71_149
*5024 FILLER_0_71_161
*5025 FILLER_0_71_167
*5026 FILLER_0_71_169
*5027 FILLER_0_71_181
*5028 FILLER_0_71_19
*5029 FILLER_0_71_193
*5030 FILLER_0_71_205
*5031 FILLER_0_71_217
*5032 FILLER_0_71_223
*5033 FILLER_0_71_225
*5034 FILLER_0_71_237
*5035 FILLER_0_71_249
*5036 FILLER_0_71_261
*5037 FILLER_0_71_273
*5038 FILLER_0_71_279
*5039 FILLER_0_71_281
*5040 FILLER_0_71_293
*5041 FILLER_0_71_305
*5042 FILLER_0_71_31
*5043 FILLER_0_71_317
*5044 FILLER_0_71_329
*5045 FILLER_0_71_335
*5046 FILLER_0_71_337
*5047 FILLER_0_71_349
*5048 FILLER_0_71_361
*5049 FILLER_0_71_373
*5050 FILLER_0_71_385
*5051 FILLER_0_71_391
*5052 FILLER_0_71_393
*5053 FILLER_0_71_405
*5054 FILLER_0_71_417
*5055 FILLER_0_71_429
*5056 FILLER_0_71_43
*5057 FILLER_0_71_441
*5058 FILLER_0_71_447
*5059 FILLER_0_71_449
*5060 FILLER_0_71_461
*5061 FILLER_0_71_473
*5062 FILLER_0_71_485
*5063 FILLER_0_71_497
*5064 FILLER_0_71_503
*5065 FILLER_0_71_505
*5066 FILLER_0_71_517
*5067 FILLER_0_71_529
*5068 FILLER_0_71_541
*5069 FILLER_0_71_55
*5070 FILLER_0_71_553
*5071 FILLER_0_71_559
*5072 FILLER_0_71_561
*5073 FILLER_0_71_57
*5074 FILLER_0_71_573
*5075 FILLER_0_71_585
*5076 FILLER_0_71_597
*5077 FILLER_0_71_609
*5078 FILLER_0_71_615
*5079 FILLER_0_71_617
*5080 FILLER_0_71_621
*5081 FILLER_0_71_69
*5082 FILLER_0_71_7
*5083 FILLER_0_71_81
*5084 FILLER_0_71_93
*5085 FILLER_0_72_109
*5086 FILLER_0_72_121
*5087 FILLER_0_72_133
*5088 FILLER_0_72_139
*5089 FILLER_0_72_141
*5090 FILLER_0_72_15
*5091 FILLER_0_72_153
*5092 FILLER_0_72_165
*5093 FILLER_0_72_177
*5094 FILLER_0_72_189
*5095 FILLER_0_72_195
*5096 FILLER_0_72_197
*5097 FILLER_0_72_209
*5098 FILLER_0_72_221
*5099 FILLER_0_72_233
*5100 FILLER_0_72_245
*5101 FILLER_0_72_251
*5102 FILLER_0_72_253
*5103 FILLER_0_72_265
*5104 FILLER_0_72_27
*5105 FILLER_0_72_277
*5106 FILLER_0_72_289
*5107 FILLER_0_72_29
*5108 FILLER_0_72_3
*5109 FILLER_0_72_301
*5110 FILLER_0_72_307
*5111 FILLER_0_72_309
*5112 FILLER_0_72_321
*5113 FILLER_0_72_333
*5114 FILLER_0_72_345
*5115 FILLER_0_72_357
*5116 FILLER_0_72_363
*5117 FILLER_0_72_365
*5118 FILLER_0_72_377
*5119 FILLER_0_72_389
*5120 FILLER_0_72_401
*5121 FILLER_0_72_41
*5122 FILLER_0_72_413
*5123 FILLER_0_72_419
*5124 FILLER_0_72_421
*5125 FILLER_0_72_433
*5126 FILLER_0_72_445
*5127 FILLER_0_72_457
*5128 FILLER_0_72_469
*5129 FILLER_0_72_475
*5130 FILLER_0_72_477
*5131 FILLER_0_72_489
*5132 FILLER_0_72_501
*5133 FILLER_0_72_513
*5134 FILLER_0_72_525
*5135 FILLER_0_72_53
*5136 FILLER_0_72_531
*5137 FILLER_0_72_533
*5138 FILLER_0_72_545
*5139 FILLER_0_72_557
*5140 FILLER_0_72_569
*5141 FILLER_0_72_581
*5142 FILLER_0_72_587
*5143 FILLER_0_72_589
*5144 FILLER_0_72_601
*5145 FILLER_0_72_613
*5146 FILLER_0_72_65
*5147 FILLER_0_72_77
*5148 FILLER_0_72_83
*5149 FILLER_0_72_85
*5150 FILLER_0_72_97
*5151 FILLER_0_73_105
*5152 FILLER_0_73_111
*5153 FILLER_0_73_113
*5154 FILLER_0_73_125
*5155 FILLER_0_73_137
*5156 FILLER_0_73_149
*5157 FILLER_0_73_15
*5158 FILLER_0_73_161
*5159 FILLER_0_73_167
*5160 FILLER_0_73_169
*5161 FILLER_0_73_181
*5162 FILLER_0_73_193
*5163 FILLER_0_73_205
*5164 FILLER_0_73_217
*5165 FILLER_0_73_223
*5166 FILLER_0_73_225
*5167 FILLER_0_73_237
*5168 FILLER_0_73_249
*5169 FILLER_0_73_261
*5170 FILLER_0_73_27
*5171 FILLER_0_73_273
*5172 FILLER_0_73_279
*5173 FILLER_0_73_281
*5174 FILLER_0_73_293
*5175 FILLER_0_73_3
*5176 FILLER_0_73_305
*5177 FILLER_0_73_317
*5178 FILLER_0_73_329
*5179 FILLER_0_73_335
*5180 FILLER_0_73_337
*5181 FILLER_0_73_349
*5182 FILLER_0_73_361
*5183 FILLER_0_73_373
*5184 FILLER_0_73_385
*5185 FILLER_0_73_39
*5186 FILLER_0_73_391
*5187 FILLER_0_73_393
*5188 FILLER_0_73_405
*5189 FILLER_0_73_417
*5190 FILLER_0_73_429
*5191 FILLER_0_73_441
*5192 FILLER_0_73_447
*5193 FILLER_0_73_449
*5194 FILLER_0_73_461
*5195 FILLER_0_73_473
*5196 FILLER_0_73_485
*5197 FILLER_0_73_497
*5198 FILLER_0_73_503
*5199 FILLER_0_73_505
*5200 FILLER_0_73_51
*5201 FILLER_0_73_517
*5202 FILLER_0_73_529
*5203 FILLER_0_73_541
*5204 FILLER_0_73_55
*5205 FILLER_0_73_553
*5206 FILLER_0_73_559
*5207 FILLER_0_73_561
*5208 FILLER_0_73_57
*5209 FILLER_0_73_573
*5210 FILLER_0_73_585
*5211 FILLER_0_73_597
*5212 FILLER_0_73_609
*5213 FILLER_0_73_615
*5214 FILLER_0_73_617
*5215 FILLER_0_73_69
*5216 FILLER_0_73_81
*5217 FILLER_0_73_93
*5218 FILLER_0_74_109
*5219 FILLER_0_74_121
*5220 FILLER_0_74_133
*5221 FILLER_0_74_139
*5222 FILLER_0_74_141
*5223 FILLER_0_74_15
*5224 FILLER_0_74_153
*5225 FILLER_0_74_165
*5226 FILLER_0_74_177
*5227 FILLER_0_74_189
*5228 FILLER_0_74_195
*5229 FILLER_0_74_197
*5230 FILLER_0_74_209
*5231 FILLER_0_74_221
*5232 FILLER_0_74_233
*5233 FILLER_0_74_245
*5234 FILLER_0_74_251
*5235 FILLER_0_74_253
*5236 FILLER_0_74_265
*5237 FILLER_0_74_27
*5238 FILLER_0_74_277
*5239 FILLER_0_74_289
*5240 FILLER_0_74_29
*5241 FILLER_0_74_3
*5242 FILLER_0_74_301
*5243 FILLER_0_74_307
*5244 FILLER_0_74_309
*5245 FILLER_0_74_321
*5246 FILLER_0_74_333
*5247 FILLER_0_74_345
*5248 FILLER_0_74_357
*5249 FILLER_0_74_363
*5250 FILLER_0_74_365
*5251 FILLER_0_74_377
*5252 FILLER_0_74_389
*5253 FILLER_0_74_401
*5254 FILLER_0_74_41
*5255 FILLER_0_74_413
*5256 FILLER_0_74_419
*5257 FILLER_0_74_421
*5258 FILLER_0_74_433
*5259 FILLER_0_74_445
*5260 FILLER_0_74_457
*5261 FILLER_0_74_469
*5262 FILLER_0_74_475
*5263 FILLER_0_74_477
*5264 FILLER_0_74_489
*5265 FILLER_0_74_501
*5266 FILLER_0_74_513
*5267 FILLER_0_74_525
*5268 FILLER_0_74_53
*5269 FILLER_0_74_531
*5270 FILLER_0_74_533
*5271 FILLER_0_74_545
*5272 FILLER_0_74_557
*5273 FILLER_0_74_569
*5274 FILLER_0_74_581
*5275 FILLER_0_74_587
*5276 FILLER_0_74_589
*5277 FILLER_0_74_601
*5278 FILLER_0_74_613
*5279 FILLER_0_74_65
*5280 FILLER_0_74_77
*5281 FILLER_0_74_83
*5282 FILLER_0_74_85
*5283 FILLER_0_74_97
*5284 FILLER_0_75_105
*5285 FILLER_0_75_111
*5286 FILLER_0_75_113
*5287 FILLER_0_75_125
*5288 FILLER_0_75_137
*5289 FILLER_0_75_149
*5290 FILLER_0_75_15
*5291 FILLER_0_75_161
*5292 FILLER_0_75_167
*5293 FILLER_0_75_169
*5294 FILLER_0_75_181
*5295 FILLER_0_75_193
*5296 FILLER_0_75_205
*5297 FILLER_0_75_217
*5298 FILLER_0_75_223
*5299 FILLER_0_75_225
*5300 FILLER_0_75_237
*5301 FILLER_0_75_249
*5302 FILLER_0_75_261
*5303 FILLER_0_75_27
*5304 FILLER_0_75_273
*5305 FILLER_0_75_279
*5306 FILLER_0_75_281
*5307 FILLER_0_75_293
*5308 FILLER_0_75_3
*5309 FILLER_0_75_305
*5310 FILLER_0_75_317
*5311 FILLER_0_75_329
*5312 FILLER_0_75_335
*5313 FILLER_0_75_337
*5314 FILLER_0_75_349
*5315 FILLER_0_75_361
*5316 FILLER_0_75_373
*5317 FILLER_0_75_385
*5318 FILLER_0_75_39
*5319 FILLER_0_75_391
*5320 FILLER_0_75_393
*5321 FILLER_0_75_405
*5322 FILLER_0_75_417
*5323 FILLER_0_75_429
*5324 FILLER_0_75_441
*5325 FILLER_0_75_447
*5326 FILLER_0_75_449
*5327 FILLER_0_75_461
*5328 FILLER_0_75_473
*5329 FILLER_0_75_485
*5330 FILLER_0_75_497
*5331 FILLER_0_75_503
*5332 FILLER_0_75_505
*5333 FILLER_0_75_51
*5334 FILLER_0_75_517
*5335 FILLER_0_75_529
*5336 FILLER_0_75_541
*5337 FILLER_0_75_55
*5338 FILLER_0_75_553
*5339 FILLER_0_75_559
*5340 FILLER_0_75_561
*5341 FILLER_0_75_57
*5342 FILLER_0_75_573
*5343 FILLER_0_75_585
*5344 FILLER_0_75_597
*5345 FILLER_0_75_609
*5346 FILLER_0_75_615
*5347 FILLER_0_75_617
*5348 FILLER_0_75_69
*5349 FILLER_0_75_81
*5350 FILLER_0_75_93
*5351 FILLER_0_76_109
*5352 FILLER_0_76_121
*5353 FILLER_0_76_133
*5354 FILLER_0_76_139
*5355 FILLER_0_76_141
*5356 FILLER_0_76_15
*5357 FILLER_0_76_153
*5358 FILLER_0_76_165
*5359 FILLER_0_76_177
*5360 FILLER_0_76_189
*5361 FILLER_0_76_195
*5362 FILLER_0_76_197
*5363 FILLER_0_76_209
*5364 FILLER_0_76_221
*5365 FILLER_0_76_233
*5366 FILLER_0_76_245
*5367 FILLER_0_76_251
*5368 FILLER_0_76_253
*5369 FILLER_0_76_265
*5370 FILLER_0_76_27
*5371 FILLER_0_76_277
*5372 FILLER_0_76_289
*5373 FILLER_0_76_29
*5374 FILLER_0_76_3
*5375 FILLER_0_76_301
*5376 FILLER_0_76_307
*5377 FILLER_0_76_309
*5378 FILLER_0_76_321
*5379 FILLER_0_76_333
*5380 FILLER_0_76_345
*5381 FILLER_0_76_357
*5382 FILLER_0_76_363
*5383 FILLER_0_76_365
*5384 FILLER_0_76_377
*5385 FILLER_0_76_389
*5386 FILLER_0_76_401
*5387 FILLER_0_76_41
*5388 FILLER_0_76_413
*5389 FILLER_0_76_419
*5390 FILLER_0_76_421
*5391 FILLER_0_76_433
*5392 FILLER_0_76_445
*5393 FILLER_0_76_457
*5394 FILLER_0_76_469
*5395 FILLER_0_76_475
*5396 FILLER_0_76_477
*5397 FILLER_0_76_489
*5398 FILLER_0_76_501
*5399 FILLER_0_76_513
*5400 FILLER_0_76_525
*5401 FILLER_0_76_53
*5402 FILLER_0_76_531
*5403 FILLER_0_76_533
*5404 FILLER_0_76_545
*5405 FILLER_0_76_557
*5406 FILLER_0_76_569
*5407 FILLER_0_76_581
*5408 FILLER_0_76_587
*5409 FILLER_0_76_589
*5410 FILLER_0_76_601
*5411 FILLER_0_76_613
*5412 FILLER_0_76_65
*5413 FILLER_0_76_77
*5414 FILLER_0_76_83
*5415 FILLER_0_76_85
*5416 FILLER_0_76_97
*5417 FILLER_0_77_105
*5418 FILLER_0_77_111
*5419 FILLER_0_77_113
*5420 FILLER_0_77_125
*5421 FILLER_0_77_137
*5422 FILLER_0_77_149
*5423 FILLER_0_77_15
*5424 FILLER_0_77_161
*5425 FILLER_0_77_167
*5426 FILLER_0_77_169
*5427 FILLER_0_77_181
*5428 FILLER_0_77_193
*5429 FILLER_0_77_205
*5430 FILLER_0_77_217
*5431 FILLER_0_77_223
*5432 FILLER_0_77_225
*5433 FILLER_0_77_237
*5434 FILLER_0_77_249
*5435 FILLER_0_77_261
*5436 FILLER_0_77_27
*5437 FILLER_0_77_273
*5438 FILLER_0_77_279
*5439 FILLER_0_77_281
*5440 FILLER_0_77_293
*5441 FILLER_0_77_3
*5442 FILLER_0_77_305
*5443 FILLER_0_77_317
*5444 FILLER_0_77_329
*5445 FILLER_0_77_335
*5446 FILLER_0_77_337
*5447 FILLER_0_77_349
*5448 FILLER_0_77_361
*5449 FILLER_0_77_373
*5450 FILLER_0_77_385
*5451 FILLER_0_77_39
*5452 FILLER_0_77_391
*5453 FILLER_0_77_393
*5454 FILLER_0_77_405
*5455 FILLER_0_77_417
*5456 FILLER_0_77_429
*5457 FILLER_0_77_441
*5458 FILLER_0_77_447
*5459 FILLER_0_77_449
*5460 FILLER_0_77_461
*5461 FILLER_0_77_473
*5462 FILLER_0_77_485
*5463 FILLER_0_77_497
*5464 FILLER_0_77_503
*5465 FILLER_0_77_505
*5466 FILLER_0_77_51
*5467 FILLER_0_77_517
*5468 FILLER_0_77_529
*5469 FILLER_0_77_541
*5470 FILLER_0_77_55
*5471 FILLER_0_77_553
*5472 FILLER_0_77_559
*5473 FILLER_0_77_561
*5474 FILLER_0_77_57
*5475 FILLER_0_77_573
*5476 FILLER_0_77_585
*5477 FILLER_0_77_597
*5478 FILLER_0_77_609
*5479 FILLER_0_77_615
*5480 FILLER_0_77_617
*5481 FILLER_0_77_69
*5482 FILLER_0_77_81
*5483 FILLER_0_77_93
*5484 FILLER_0_78_109
*5485 FILLER_0_78_121
*5486 FILLER_0_78_133
*5487 FILLER_0_78_139
*5488 FILLER_0_78_141
*5489 FILLER_0_78_15
*5490 FILLER_0_78_153
*5491 FILLER_0_78_165
*5492 FILLER_0_78_177
*5493 FILLER_0_78_189
*5494 FILLER_0_78_195
*5495 FILLER_0_78_197
*5496 FILLER_0_78_209
*5497 FILLER_0_78_221
*5498 FILLER_0_78_233
*5499 FILLER_0_78_245
*5500 FILLER_0_78_251
*5501 FILLER_0_78_253
*5502 FILLER_0_78_265
*5503 FILLER_0_78_27
*5504 FILLER_0_78_277
*5505 FILLER_0_78_289
*5506 FILLER_0_78_29
*5507 FILLER_0_78_3
*5508 FILLER_0_78_301
*5509 FILLER_0_78_307
*5510 FILLER_0_78_309
*5511 FILLER_0_78_321
*5512 FILLER_0_78_333
*5513 FILLER_0_78_345
*5514 FILLER_0_78_357
*5515 FILLER_0_78_363
*5516 FILLER_0_78_365
*5517 FILLER_0_78_377
*5518 FILLER_0_78_389
*5519 FILLER_0_78_401
*5520 FILLER_0_78_41
*5521 FILLER_0_78_413
*5522 FILLER_0_78_419
*5523 FILLER_0_78_421
*5524 FILLER_0_78_433
*5525 FILLER_0_78_445
*5526 FILLER_0_78_457
*5527 FILLER_0_78_469
*5528 FILLER_0_78_475
*5529 FILLER_0_78_477
*5530 FILLER_0_78_489
*5531 FILLER_0_78_501
*5532 FILLER_0_78_513
*5533 FILLER_0_78_525
*5534 FILLER_0_78_53
*5535 FILLER_0_78_531
*5536 FILLER_0_78_533
*5537 FILLER_0_78_545
*5538 FILLER_0_78_557
*5539 FILLER_0_78_569
*5540 FILLER_0_78_581
*5541 FILLER_0_78_587
*5542 FILLER_0_78_589
*5543 FILLER_0_78_601
*5544 FILLER_0_78_613
*5545 FILLER_0_78_65
*5546 FILLER_0_78_77
*5547 FILLER_0_78_83
*5548 FILLER_0_78_85
*5549 FILLER_0_78_97
*5550 FILLER_0_79_105
*5551 FILLER_0_79_111
*5552 FILLER_0_79_113
*5553 FILLER_0_79_125
*5554 FILLER_0_79_137
*5555 FILLER_0_79_149
*5556 FILLER_0_79_15
*5557 FILLER_0_79_161
*5558 FILLER_0_79_167
*5559 FILLER_0_79_169
*5560 FILLER_0_79_181
*5561 FILLER_0_79_193
*5562 FILLER_0_79_205
*5563 FILLER_0_79_217
*5564 FILLER_0_79_223
*5565 FILLER_0_79_225
*5566 FILLER_0_79_237
*5567 FILLER_0_79_249
*5568 FILLER_0_79_261
*5569 FILLER_0_79_27
*5570 FILLER_0_79_273
*5571 FILLER_0_79_279
*5572 FILLER_0_79_281
*5573 FILLER_0_79_293
*5574 FILLER_0_79_3
*5575 FILLER_0_79_305
*5576 FILLER_0_79_317
*5577 FILLER_0_79_329
*5578 FILLER_0_79_335
*5579 FILLER_0_79_337
*5580 FILLER_0_79_349
*5581 FILLER_0_79_361
*5582 FILLER_0_79_373
*5583 FILLER_0_79_385
*5584 FILLER_0_79_39
*5585 FILLER_0_79_391
*5586 FILLER_0_79_393
*5587 FILLER_0_79_405
*5588 FILLER_0_79_417
*5589 FILLER_0_79_429
*5590 FILLER_0_79_441
*5591 FILLER_0_79_447
*5592 FILLER_0_79_449
*5593 FILLER_0_79_461
*5594 FILLER_0_79_473
*5595 FILLER_0_79_485
*5596 FILLER_0_79_497
*5597 FILLER_0_79_503
*5598 FILLER_0_79_505
*5599 FILLER_0_79_51
*5600 FILLER_0_79_517
*5601 FILLER_0_79_529
*5602 FILLER_0_79_541
*5603 FILLER_0_79_55
*5604 FILLER_0_79_553
*5605 FILLER_0_79_559
*5606 FILLER_0_79_561
*5607 FILLER_0_79_57
*5608 FILLER_0_79_573
*5609 FILLER_0_79_585
*5610 FILLER_0_79_597
*5611 FILLER_0_79_609
*5612 FILLER_0_79_615
*5613 FILLER_0_79_617
*5614 FILLER_0_79_69
*5615 FILLER_0_79_81
*5616 FILLER_0_79_93
*5617 FILLER_0_7_105
*5618 FILLER_0_7_111
*5619 FILLER_0_7_113
*5620 FILLER_0_7_125
*5621 FILLER_0_7_137
*5622 FILLER_0_7_149
*5623 FILLER_0_7_15
*5624 FILLER_0_7_161
*5625 FILLER_0_7_167
*5626 FILLER_0_7_169
*5627 FILLER_0_7_181
*5628 FILLER_0_7_193
*5629 FILLER_0_7_205
*5630 FILLER_0_7_215
*5631 FILLER_0_7_223
*5632 FILLER_0_7_225
*5633 FILLER_0_7_237
*5634 FILLER_0_7_249
*5635 FILLER_0_7_257
*5636 FILLER_0_7_27
*5637 FILLER_0_7_281
*5638 FILLER_0_7_293
*5639 FILLER_0_7_3
*5640 FILLER_0_7_305
*5641 FILLER_0_7_317
*5642 FILLER_0_7_329
*5643 FILLER_0_7_335
*5644 FILLER_0_7_337
*5645 FILLER_0_7_349
*5646 FILLER_0_7_361
*5647 FILLER_0_7_373
*5648 FILLER_0_7_385
*5649 FILLER_0_7_39
*5650 FILLER_0_7_391
*5651 FILLER_0_7_393
*5652 FILLER_0_7_405
*5653 FILLER_0_7_417
*5654 FILLER_0_7_429
*5655 FILLER_0_7_441
*5656 FILLER_0_7_447
*5657 FILLER_0_7_449
*5658 FILLER_0_7_461
*5659 FILLER_0_7_473
*5660 FILLER_0_7_485
*5661 FILLER_0_7_497
*5662 FILLER_0_7_503
*5663 FILLER_0_7_505
*5664 FILLER_0_7_51
*5665 FILLER_0_7_517
*5666 FILLER_0_7_529
*5667 FILLER_0_7_541
*5668 FILLER_0_7_55
*5669 FILLER_0_7_553
*5670 FILLER_0_7_559
*5671 FILLER_0_7_561
*5672 FILLER_0_7_57
*5673 FILLER_0_7_573
*5674 FILLER_0_7_585
*5675 FILLER_0_7_597
*5676 FILLER_0_7_609
*5677 FILLER_0_7_615
*5678 FILLER_0_7_617
*5679 FILLER_0_7_69
*5680 FILLER_0_7_81
*5681 FILLER_0_7_93
*5682 FILLER_0_80_109
*5683 FILLER_0_80_121
*5684 FILLER_0_80_133
*5685 FILLER_0_80_139
*5686 FILLER_0_80_141
*5687 FILLER_0_80_15
*5688 FILLER_0_80_153
*5689 FILLER_0_80_165
*5690 FILLER_0_80_177
*5691 FILLER_0_80_189
*5692 FILLER_0_80_195
*5693 FILLER_0_80_197
*5694 FILLER_0_80_209
*5695 FILLER_0_80_221
*5696 FILLER_0_80_233
*5697 FILLER_0_80_245
*5698 FILLER_0_80_251
*5699 FILLER_0_80_253
*5700 FILLER_0_80_265
*5701 FILLER_0_80_27
*5702 FILLER_0_80_277
*5703 FILLER_0_80_289
*5704 FILLER_0_80_29
*5705 FILLER_0_80_3
*5706 FILLER_0_80_301
*5707 FILLER_0_80_307
*5708 FILLER_0_80_309
*5709 FILLER_0_80_321
*5710 FILLER_0_80_333
*5711 FILLER_0_80_345
*5712 FILLER_0_80_357
*5713 FILLER_0_80_363
*5714 FILLER_0_80_365
*5715 FILLER_0_80_377
*5716 FILLER_0_80_389
*5717 FILLER_0_80_401
*5718 FILLER_0_80_41
*5719 FILLER_0_80_413
*5720 FILLER_0_80_419
*5721 FILLER_0_80_421
*5722 FILLER_0_80_433
*5723 FILLER_0_80_445
*5724 FILLER_0_80_457
*5725 FILLER_0_80_469
*5726 FILLER_0_80_475
*5727 FILLER_0_80_477
*5728 FILLER_0_80_489
*5729 FILLER_0_80_501
*5730 FILLER_0_80_513
*5731 FILLER_0_80_525
*5732 FILLER_0_80_53
*5733 FILLER_0_80_531
*5734 FILLER_0_80_533
*5735 FILLER_0_80_545
*5736 FILLER_0_80_557
*5737 FILLER_0_80_569
*5738 FILLER_0_80_581
*5739 FILLER_0_80_587
*5740 FILLER_0_80_589
*5741 FILLER_0_80_601
*5742 FILLER_0_80_613
*5743 FILLER_0_80_65
*5744 FILLER_0_80_77
*5745 FILLER_0_80_83
*5746 FILLER_0_80_85
*5747 FILLER_0_80_97
*5748 FILLER_0_81_105
*5749 FILLER_0_81_111
*5750 FILLER_0_81_113
*5751 FILLER_0_81_125
*5752 FILLER_0_81_137
*5753 FILLER_0_81_149
*5754 FILLER_0_81_15
*5755 FILLER_0_81_161
*5756 FILLER_0_81_167
*5757 FILLER_0_81_169
*5758 FILLER_0_81_181
*5759 FILLER_0_81_193
*5760 FILLER_0_81_205
*5761 FILLER_0_81_217
*5762 FILLER_0_81_223
*5763 FILLER_0_81_225
*5764 FILLER_0_81_237
*5765 FILLER_0_81_249
*5766 FILLER_0_81_261
*5767 FILLER_0_81_27
*5768 FILLER_0_81_273
*5769 FILLER_0_81_279
*5770 FILLER_0_81_281
*5771 FILLER_0_81_293
*5772 FILLER_0_81_3
*5773 FILLER_0_81_305
*5774 FILLER_0_81_317
*5775 FILLER_0_81_329
*5776 FILLER_0_81_335
*5777 FILLER_0_81_337
*5778 FILLER_0_81_349
*5779 FILLER_0_81_361
*5780 FILLER_0_81_373
*5781 FILLER_0_81_385
*5782 FILLER_0_81_39
*5783 FILLER_0_81_391
*5784 FILLER_0_81_393
*5785 FILLER_0_81_405
*5786 FILLER_0_81_417
*5787 FILLER_0_81_429
*5788 FILLER_0_81_441
*5789 FILLER_0_81_447
*5790 FILLER_0_81_449
*5791 FILLER_0_81_461
*5792 FILLER_0_81_473
*5793 FILLER_0_81_485
*5794 FILLER_0_81_497
*5795 FILLER_0_81_503
*5796 FILLER_0_81_505
*5797 FILLER_0_81_51
*5798 FILLER_0_81_517
*5799 FILLER_0_81_529
*5800 FILLER_0_81_541
*5801 FILLER_0_81_55
*5802 FILLER_0_81_553
*5803 FILLER_0_81_559
*5804 FILLER_0_81_561
*5805 FILLER_0_81_57
*5806 FILLER_0_81_573
*5807 FILLER_0_81_585
*5808 FILLER_0_81_597
*5809 FILLER_0_81_609
*5810 FILLER_0_81_615
*5811 FILLER_0_81_617
*5812 FILLER_0_81_69
*5813 FILLER_0_81_81
*5814 FILLER_0_81_93
*5815 FILLER_0_82_109
*5816 FILLER_0_82_121
*5817 FILLER_0_82_133
*5818 FILLER_0_82_139
*5819 FILLER_0_82_141
*5820 FILLER_0_82_15
*5821 FILLER_0_82_153
*5822 FILLER_0_82_165
*5823 FILLER_0_82_177
*5824 FILLER_0_82_189
*5825 FILLER_0_82_195
*5826 FILLER_0_82_197
*5827 FILLER_0_82_209
*5828 FILLER_0_82_221
*5829 FILLER_0_82_233
*5830 FILLER_0_82_245
*5831 FILLER_0_82_251
*5832 FILLER_0_82_253
*5833 FILLER_0_82_265
*5834 FILLER_0_82_27
*5835 FILLER_0_82_277
*5836 FILLER_0_82_289
*5837 FILLER_0_82_29
*5838 FILLER_0_82_3
*5839 FILLER_0_82_301
*5840 FILLER_0_82_307
*5841 FILLER_0_82_309
*5842 FILLER_0_82_321
*5843 FILLER_0_82_333
*5844 FILLER_0_82_345
*5845 FILLER_0_82_357
*5846 FILLER_0_82_363
*5847 FILLER_0_82_365
*5848 FILLER_0_82_377
*5849 FILLER_0_82_389
*5850 FILLER_0_82_401
*5851 FILLER_0_82_41
*5852 FILLER_0_82_413
*5853 FILLER_0_82_419
*5854 FILLER_0_82_421
*5855 FILLER_0_82_433
*5856 FILLER_0_82_445
*5857 FILLER_0_82_457
*5858 FILLER_0_82_469
*5859 FILLER_0_82_475
*5860 FILLER_0_82_477
*5861 FILLER_0_82_489
*5862 FILLER_0_82_501
*5863 FILLER_0_82_513
*5864 FILLER_0_82_525
*5865 FILLER_0_82_53
*5866 FILLER_0_82_531
*5867 FILLER_0_82_533
*5868 FILLER_0_82_545
*5869 FILLER_0_82_557
*5870 FILLER_0_82_569
*5871 FILLER_0_82_581
*5872 FILLER_0_82_587
*5873 FILLER_0_82_589
*5874 FILLER_0_82_601
*5875 FILLER_0_82_613
*5876 FILLER_0_82_65
*5877 FILLER_0_82_77
*5878 FILLER_0_82_83
*5879 FILLER_0_82_85
*5880 FILLER_0_82_97
*5881 FILLER_0_83_105
*5882 FILLER_0_83_111
*5883 FILLER_0_83_113
*5884 FILLER_0_83_125
*5885 FILLER_0_83_137
*5886 FILLER_0_83_149
*5887 FILLER_0_83_15
*5888 FILLER_0_83_161
*5889 FILLER_0_83_167
*5890 FILLER_0_83_169
*5891 FILLER_0_83_181
*5892 FILLER_0_83_193
*5893 FILLER_0_83_205
*5894 FILLER_0_83_217
*5895 FILLER_0_83_223
*5896 FILLER_0_83_225
*5897 FILLER_0_83_237
*5898 FILLER_0_83_249
*5899 FILLER_0_83_261
*5900 FILLER_0_83_27
*5901 FILLER_0_83_273
*5902 FILLER_0_83_279
*5903 FILLER_0_83_281
*5904 FILLER_0_83_293
*5905 FILLER_0_83_3
*5906 FILLER_0_83_305
*5907 FILLER_0_83_317
*5908 FILLER_0_83_329
*5909 FILLER_0_83_335
*5910 FILLER_0_83_337
*5911 FILLER_0_83_349
*5912 FILLER_0_83_361
*5913 FILLER_0_83_373
*5914 FILLER_0_83_385
*5915 FILLER_0_83_39
*5916 FILLER_0_83_391
*5917 FILLER_0_83_393
*5918 FILLER_0_83_405
*5919 FILLER_0_83_417
*5920 FILLER_0_83_429
*5921 FILLER_0_83_441
*5922 FILLER_0_83_447
*5923 FILLER_0_83_449
*5924 FILLER_0_83_461
*5925 FILLER_0_83_473
*5926 FILLER_0_83_485
*5927 FILLER_0_83_497
*5928 FILLER_0_83_503
*5929 FILLER_0_83_505
*5930 FILLER_0_83_51
*5931 FILLER_0_83_517
*5932 FILLER_0_83_529
*5933 FILLER_0_83_541
*5934 FILLER_0_83_55
*5935 FILLER_0_83_553
*5936 FILLER_0_83_559
*5937 FILLER_0_83_561
*5938 FILLER_0_83_57
*5939 FILLER_0_83_573
*5940 FILLER_0_83_585
*5941 FILLER_0_83_597
*5942 FILLER_0_83_609
*5943 FILLER_0_83_615
*5944 FILLER_0_83_617
*5945 FILLER_0_83_69
*5946 FILLER_0_83_81
*5947 FILLER_0_83_93
*5948 FILLER_0_84_109
*5949 FILLER_0_84_121
*5950 FILLER_0_84_133
*5951 FILLER_0_84_139
*5952 FILLER_0_84_141
*5953 FILLER_0_84_15
*5954 FILLER_0_84_153
*5955 FILLER_0_84_165
*5956 FILLER_0_84_177
*5957 FILLER_0_84_189
*5958 FILLER_0_84_195
*5959 FILLER_0_84_197
*5960 FILLER_0_84_209
*5961 FILLER_0_84_221
*5962 FILLER_0_84_233
*5963 FILLER_0_84_245
*5964 FILLER_0_84_251
*5965 FILLER_0_84_253
*5966 FILLER_0_84_265
*5967 FILLER_0_84_27
*5968 FILLER_0_84_277
*5969 FILLER_0_84_289
*5970 FILLER_0_84_29
*5971 FILLER_0_84_3
*5972 FILLER_0_84_301
*5973 FILLER_0_84_307
*5974 FILLER_0_84_309
*5975 FILLER_0_84_321
*5976 FILLER_0_84_333
*5977 FILLER_0_84_345
*5978 FILLER_0_84_357
*5979 FILLER_0_84_363
*5980 FILLER_0_84_365
*5981 FILLER_0_84_377
*5982 FILLER_0_84_389
*5983 FILLER_0_84_401
*5984 FILLER_0_84_41
*5985 FILLER_0_84_413
*5986 FILLER_0_84_419
*5987 FILLER_0_84_421
*5988 FILLER_0_84_433
*5989 FILLER_0_84_445
*5990 FILLER_0_84_457
*5991 FILLER_0_84_469
*5992 FILLER_0_84_475
*5993 FILLER_0_84_477
*5994 FILLER_0_84_489
*5995 FILLER_0_84_501
*5996 FILLER_0_84_513
*5997 FILLER_0_84_525
*5998 FILLER_0_84_53
*5999 FILLER_0_84_531
*6000 FILLER_0_84_533
*6001 FILLER_0_84_545
*6002 FILLER_0_84_557
*6003 FILLER_0_84_569
*6004 FILLER_0_84_581
*6005 FILLER_0_84_587
*6006 FILLER_0_84_589
*6007 FILLER_0_84_601
*6008 FILLER_0_84_613
*6009 FILLER_0_84_65
*6010 FILLER_0_84_77
*6011 FILLER_0_84_83
*6012 FILLER_0_84_85
*6013 FILLER_0_84_97
*6014 FILLER_0_85_105
*6015 FILLER_0_85_111
*6016 FILLER_0_85_113
*6017 FILLER_0_85_125
*6018 FILLER_0_85_137
*6019 FILLER_0_85_149
*6020 FILLER_0_85_161
*6021 FILLER_0_85_167
*6022 FILLER_0_85_169
*6023 FILLER_0_85_181
*6024 FILLER_0_85_19
*6025 FILLER_0_85_193
*6026 FILLER_0_85_205
*6027 FILLER_0_85_217
*6028 FILLER_0_85_223
*6029 FILLER_0_85_225
*6030 FILLER_0_85_237
*6031 FILLER_0_85_249
*6032 FILLER_0_85_261
*6033 FILLER_0_85_273
*6034 FILLER_0_85_279
*6035 FILLER_0_85_281
*6036 FILLER_0_85_293
*6037 FILLER_0_85_305
*6038 FILLER_0_85_31
*6039 FILLER_0_85_317
*6040 FILLER_0_85_329
*6041 FILLER_0_85_335
*6042 FILLER_0_85_337
*6043 FILLER_0_85_349
*6044 FILLER_0_85_361
*6045 FILLER_0_85_373
*6046 FILLER_0_85_385
*6047 FILLER_0_85_391
*6048 FILLER_0_85_393
*6049 FILLER_0_85_405
*6050 FILLER_0_85_417
*6051 FILLER_0_85_429
*6052 FILLER_0_85_43
*6053 FILLER_0_85_441
*6054 FILLER_0_85_447
*6055 FILLER_0_85_449
*6056 FILLER_0_85_461
*6057 FILLER_0_85_473
*6058 FILLER_0_85_485
*6059 FILLER_0_85_497
*6060 FILLER_0_85_503
*6061 FILLER_0_85_505
*6062 FILLER_0_85_517
*6063 FILLER_0_85_529
*6064 FILLER_0_85_541
*6065 FILLER_0_85_55
*6066 FILLER_0_85_553
*6067 FILLER_0_85_559
*6068 FILLER_0_85_561
*6069 FILLER_0_85_57
*6070 FILLER_0_85_573
*6071 FILLER_0_85_585
*6072 FILLER_0_85_597
*6073 FILLER_0_85_609
*6074 FILLER_0_85_615
*6075 FILLER_0_85_617
*6076 FILLER_0_85_621
*6077 FILLER_0_85_69
*6078 FILLER_0_85_7
*6079 FILLER_0_85_81
*6080 FILLER_0_85_93
*6081 FILLER_0_86_109
*6082 FILLER_0_86_121
*6083 FILLER_0_86_133
*6084 FILLER_0_86_139
*6085 FILLER_0_86_141
*6086 FILLER_0_86_15
*6087 FILLER_0_86_153
*6088 FILLER_0_86_165
*6089 FILLER_0_86_177
*6090 FILLER_0_86_189
*6091 FILLER_0_86_195
*6092 FILLER_0_86_197
*6093 FILLER_0_86_209
*6094 FILLER_0_86_221
*6095 FILLER_0_86_233
*6096 FILLER_0_86_245
*6097 FILLER_0_86_251
*6098 FILLER_0_86_253
*6099 FILLER_0_86_265
*6100 FILLER_0_86_27
*6101 FILLER_0_86_277
*6102 FILLER_0_86_289
*6103 FILLER_0_86_29
*6104 FILLER_0_86_3
*6105 FILLER_0_86_301
*6106 FILLER_0_86_307
*6107 FILLER_0_86_309
*6108 FILLER_0_86_321
*6109 FILLER_0_86_333
*6110 FILLER_0_86_345
*6111 FILLER_0_86_357
*6112 FILLER_0_86_363
*6113 FILLER_0_86_365
*6114 FILLER_0_86_377
*6115 FILLER_0_86_389
*6116 FILLER_0_86_401
*6117 FILLER_0_86_41
*6118 FILLER_0_86_413
*6119 FILLER_0_86_419
*6120 FILLER_0_86_421
*6121 FILLER_0_86_433
*6122 FILLER_0_86_445
*6123 FILLER_0_86_457
*6124 FILLER_0_86_469
*6125 FILLER_0_86_475
*6126 FILLER_0_86_477
*6127 FILLER_0_86_489
*6128 FILLER_0_86_501
*6129 FILLER_0_86_513
*6130 FILLER_0_86_525
*6131 FILLER_0_86_53
*6132 FILLER_0_86_531
*6133 FILLER_0_86_533
*6134 FILLER_0_86_545
*6135 FILLER_0_86_557
*6136 FILLER_0_86_569
*6137 FILLER_0_86_581
*6138 FILLER_0_86_587
*6139 FILLER_0_86_589
*6140 FILLER_0_86_601
*6141 FILLER_0_86_613
*6142 FILLER_0_86_65
*6143 FILLER_0_86_77
*6144 FILLER_0_86_83
*6145 FILLER_0_86_85
*6146 FILLER_0_86_97
*6147 FILLER_0_87_105
*6148 FILLER_0_87_111
*6149 FILLER_0_87_113
*6150 FILLER_0_87_125
*6151 FILLER_0_87_137
*6152 FILLER_0_87_149
*6153 FILLER_0_87_15
*6154 FILLER_0_87_161
*6155 FILLER_0_87_167
*6156 FILLER_0_87_169
*6157 FILLER_0_87_181
*6158 FILLER_0_87_193
*6159 FILLER_0_87_205
*6160 FILLER_0_87_217
*6161 FILLER_0_87_223
*6162 FILLER_0_87_225
*6163 FILLER_0_87_237
*6164 FILLER_0_87_249
*6165 FILLER_0_87_261
*6166 FILLER_0_87_27
*6167 FILLER_0_87_273
*6168 FILLER_0_87_279
*6169 FILLER_0_87_281
*6170 FILLER_0_87_293
*6171 FILLER_0_87_3
*6172 FILLER_0_87_305
*6173 FILLER_0_87_317
*6174 FILLER_0_87_329
*6175 FILLER_0_87_335
*6176 FILLER_0_87_337
*6177 FILLER_0_87_349
*6178 FILLER_0_87_361
*6179 FILLER_0_87_373
*6180 FILLER_0_87_385
*6181 FILLER_0_87_39
*6182 FILLER_0_87_391
*6183 FILLER_0_87_393
*6184 FILLER_0_87_405
*6185 FILLER_0_87_417
*6186 FILLER_0_87_429
*6187 FILLER_0_87_441
*6188 FILLER_0_87_447
*6189 FILLER_0_87_449
*6190 FILLER_0_87_461
*6191 FILLER_0_87_473
*6192 FILLER_0_87_485
*6193 FILLER_0_87_497
*6194 FILLER_0_87_503
*6195 FILLER_0_87_505
*6196 FILLER_0_87_51
*6197 FILLER_0_87_517
*6198 FILLER_0_87_529
*6199 FILLER_0_87_541
*6200 FILLER_0_87_55
*6201 FILLER_0_87_553
*6202 FILLER_0_87_559
*6203 FILLER_0_87_561
*6204 FILLER_0_87_57
*6205 FILLER_0_87_573
*6206 FILLER_0_87_585
*6207 FILLER_0_87_597
*6208 FILLER_0_87_609
*6209 FILLER_0_87_615
*6210 FILLER_0_87_617
*6211 FILLER_0_87_69
*6212 FILLER_0_87_81
*6213 FILLER_0_87_93
*6214 FILLER_0_88_109
*6215 FILLER_0_88_121
*6216 FILLER_0_88_133
*6217 FILLER_0_88_139
*6218 FILLER_0_88_141
*6219 FILLER_0_88_15
*6220 FILLER_0_88_153
*6221 FILLER_0_88_165
*6222 FILLER_0_88_177
*6223 FILLER_0_88_189
*6224 FILLER_0_88_195
*6225 FILLER_0_88_197
*6226 FILLER_0_88_209
*6227 FILLER_0_88_221
*6228 FILLER_0_88_233
*6229 FILLER_0_88_245
*6230 FILLER_0_88_251
*6231 FILLER_0_88_253
*6232 FILLER_0_88_265
*6233 FILLER_0_88_27
*6234 FILLER_0_88_277
*6235 FILLER_0_88_289
*6236 FILLER_0_88_29
*6237 FILLER_0_88_3
*6238 FILLER_0_88_301
*6239 FILLER_0_88_307
*6240 FILLER_0_88_309
*6241 FILLER_0_88_321
*6242 FILLER_0_88_333
*6243 FILLER_0_88_345
*6244 FILLER_0_88_357
*6245 FILLER_0_88_363
*6246 FILLER_0_88_365
*6247 FILLER_0_88_377
*6248 FILLER_0_88_389
*6249 FILLER_0_88_401
*6250 FILLER_0_88_41
*6251 FILLER_0_88_413
*6252 FILLER_0_88_419
*6253 FILLER_0_88_421
*6254 FILLER_0_88_433
*6255 FILLER_0_88_445
*6256 FILLER_0_88_457
*6257 FILLER_0_88_469
*6258 FILLER_0_88_475
*6259 FILLER_0_88_477
*6260 FILLER_0_88_489
*6261 FILLER_0_88_501
*6262 FILLER_0_88_513
*6263 FILLER_0_88_525
*6264 FILLER_0_88_53
*6265 FILLER_0_88_531
*6266 FILLER_0_88_533
*6267 FILLER_0_88_545
*6268 FILLER_0_88_557
*6269 FILLER_0_88_569
*6270 FILLER_0_88_581
*6271 FILLER_0_88_587
*6272 FILLER_0_88_589
*6273 FILLER_0_88_601
*6274 FILLER_0_88_613
*6275 FILLER_0_88_65
*6276 FILLER_0_88_77
*6277 FILLER_0_88_83
*6278 FILLER_0_88_85
*6279 FILLER_0_88_97
*6280 FILLER_0_89_105
*6281 FILLER_0_89_111
*6282 FILLER_0_89_113
*6283 FILLER_0_89_125
*6284 FILLER_0_89_137
*6285 FILLER_0_89_149
*6286 FILLER_0_89_15
*6287 FILLER_0_89_161
*6288 FILLER_0_89_167
*6289 FILLER_0_89_169
*6290 FILLER_0_89_181
*6291 FILLER_0_89_193
*6292 FILLER_0_89_205
*6293 FILLER_0_89_217
*6294 FILLER_0_89_223
*6295 FILLER_0_89_225
*6296 FILLER_0_89_237
*6297 FILLER_0_89_249
*6298 FILLER_0_89_261
*6299 FILLER_0_89_27
*6300 FILLER_0_89_273
*6301 FILLER_0_89_279
*6302 FILLER_0_89_281
*6303 FILLER_0_89_293
*6304 FILLER_0_89_3
*6305 FILLER_0_89_305
*6306 FILLER_0_89_317
*6307 FILLER_0_89_329
*6308 FILLER_0_89_335
*6309 FILLER_0_89_337
*6310 FILLER_0_89_349
*6311 FILLER_0_89_361
*6312 FILLER_0_89_373
*6313 FILLER_0_89_385
*6314 FILLER_0_89_39
*6315 FILLER_0_89_391
*6316 FILLER_0_89_393
*6317 FILLER_0_89_405
*6318 FILLER_0_89_417
*6319 FILLER_0_89_429
*6320 FILLER_0_89_441
*6321 FILLER_0_89_447
*6322 FILLER_0_89_449
*6323 FILLER_0_89_461
*6324 FILLER_0_89_473
*6325 FILLER_0_89_485
*6326 FILLER_0_89_497
*6327 FILLER_0_89_503
*6328 FILLER_0_89_505
*6329 FILLER_0_89_51
*6330 FILLER_0_89_517
*6331 FILLER_0_89_529
*6332 FILLER_0_89_541
*6333 FILLER_0_89_55
*6334 FILLER_0_89_553
*6335 FILLER_0_89_559
*6336 FILLER_0_89_561
*6337 FILLER_0_89_57
*6338 FILLER_0_89_573
*6339 FILLER_0_89_585
*6340 FILLER_0_89_597
*6341 FILLER_0_89_609
*6342 FILLER_0_89_615
*6343 FILLER_0_89_617
*6344 FILLER_0_89_69
*6345 FILLER_0_89_81
*6346 FILLER_0_89_93
*6347 FILLER_0_8_109
*6348 FILLER_0_8_121
*6349 FILLER_0_8_133
*6350 FILLER_0_8_139
*6351 FILLER_0_8_141
*6352 FILLER_0_8_15
*6353 FILLER_0_8_153
*6354 FILLER_0_8_165
*6355 FILLER_0_8_189
*6356 FILLER_0_8_195
*6357 FILLER_0_8_214
*6358 FILLER_0_8_226
*6359 FILLER_0_8_235
*6360 FILLER_0_8_247
*6361 FILLER_0_8_251
*6362 FILLER_0_8_253
*6363 FILLER_0_8_262
*6364 FILLER_0_8_27
*6365 FILLER_0_8_270
*6366 FILLER_0_8_29
*6367 FILLER_0_8_292
*6368 FILLER_0_8_3
*6369 FILLER_0_8_304
*6370 FILLER_0_8_309
*6371 FILLER_0_8_321
*6372 FILLER_0_8_333
*6373 FILLER_0_8_345
*6374 FILLER_0_8_357
*6375 FILLER_0_8_363
*6376 FILLER_0_8_365
*6377 FILLER_0_8_377
*6378 FILLER_0_8_389
*6379 FILLER_0_8_401
*6380 FILLER_0_8_41
*6381 FILLER_0_8_413
*6382 FILLER_0_8_419
*6383 FILLER_0_8_421
*6384 FILLER_0_8_433
*6385 FILLER_0_8_445
*6386 FILLER_0_8_457
*6387 FILLER_0_8_469
*6388 FILLER_0_8_475
*6389 FILLER_0_8_477
*6390 FILLER_0_8_489
*6391 FILLER_0_8_501
*6392 FILLER_0_8_513
*6393 FILLER_0_8_525
*6394 FILLER_0_8_53
*6395 FILLER_0_8_531
*6396 FILLER_0_8_533
*6397 FILLER_0_8_545
*6398 FILLER_0_8_557
*6399 FILLER_0_8_569
*6400 FILLER_0_8_581
*6401 FILLER_0_8_587
*6402 FILLER_0_8_589
*6403 FILLER_0_8_601
*6404 FILLER_0_8_613
*6405 FILLER_0_8_65
*6406 FILLER_0_8_77
*6407 FILLER_0_8_83
*6408 FILLER_0_8_85
*6409 FILLER_0_8_97
*6410 FILLER_0_90_109
*6411 FILLER_0_90_121
*6412 FILLER_0_90_133
*6413 FILLER_0_90_139
*6414 FILLER_0_90_141
*6415 FILLER_0_90_15
*6416 FILLER_0_90_153
*6417 FILLER_0_90_165
*6418 FILLER_0_90_177
*6419 FILLER_0_90_189
*6420 FILLER_0_90_195
*6421 FILLER_0_90_197
*6422 FILLER_0_90_209
*6423 FILLER_0_90_221
*6424 FILLER_0_90_233
*6425 FILLER_0_90_245
*6426 FILLER_0_90_251
*6427 FILLER_0_90_253
*6428 FILLER_0_90_265
*6429 FILLER_0_90_27
*6430 FILLER_0_90_277
*6431 FILLER_0_90_289
*6432 FILLER_0_90_29
*6433 FILLER_0_90_3
*6434 FILLER_0_90_301
*6435 FILLER_0_90_307
*6436 FILLER_0_90_309
*6437 FILLER_0_90_321
*6438 FILLER_0_90_333
*6439 FILLER_0_90_345
*6440 FILLER_0_90_357
*6441 FILLER_0_90_363
*6442 FILLER_0_90_365
*6443 FILLER_0_90_377
*6444 FILLER_0_90_389
*6445 FILLER_0_90_401
*6446 FILLER_0_90_41
*6447 FILLER_0_90_413
*6448 FILLER_0_90_419
*6449 FILLER_0_90_421
*6450 FILLER_0_90_433
*6451 FILLER_0_90_445
*6452 FILLER_0_90_457
*6453 FILLER_0_90_469
*6454 FILLER_0_90_475
*6455 FILLER_0_90_477
*6456 FILLER_0_90_489
*6457 FILLER_0_90_501
*6458 FILLER_0_90_513
*6459 FILLER_0_90_525
*6460 FILLER_0_90_53
*6461 FILLER_0_90_531
*6462 FILLER_0_90_533
*6463 FILLER_0_90_545
*6464 FILLER_0_90_557
*6465 FILLER_0_90_569
*6466 FILLER_0_90_581
*6467 FILLER_0_90_587
*6468 FILLER_0_90_589
*6469 FILLER_0_90_601
*6470 FILLER_0_90_613
*6471 FILLER_0_90_65
*6472 FILLER_0_90_77
*6473 FILLER_0_90_83
*6474 FILLER_0_90_85
*6475 FILLER_0_90_97
*6476 FILLER_0_91_105
*6477 FILLER_0_91_111
*6478 FILLER_0_91_113
*6479 FILLER_0_91_125
*6480 FILLER_0_91_137
*6481 FILLER_0_91_149
*6482 FILLER_0_91_15
*6483 FILLER_0_91_161
*6484 FILLER_0_91_167
*6485 FILLER_0_91_169
*6486 FILLER_0_91_181
*6487 FILLER_0_91_193
*6488 FILLER_0_91_205
*6489 FILLER_0_91_217
*6490 FILLER_0_91_223
*6491 FILLER_0_91_225
*6492 FILLER_0_91_237
*6493 FILLER_0_91_249
*6494 FILLER_0_91_261
*6495 FILLER_0_91_27
*6496 FILLER_0_91_273
*6497 FILLER_0_91_279
*6498 FILLER_0_91_281
*6499 FILLER_0_91_293
*6500 FILLER_0_91_3
*6501 FILLER_0_91_305
*6502 FILLER_0_91_317
*6503 FILLER_0_91_329
*6504 FILLER_0_91_335
*6505 FILLER_0_91_337
*6506 FILLER_0_91_349
*6507 FILLER_0_91_361
*6508 FILLER_0_91_373
*6509 FILLER_0_91_385
*6510 FILLER_0_91_39
*6511 FILLER_0_91_391
*6512 FILLER_0_91_393
*6513 FILLER_0_91_405
*6514 FILLER_0_91_417
*6515 FILLER_0_91_429
*6516 FILLER_0_91_441
*6517 FILLER_0_91_447
*6518 FILLER_0_91_449
*6519 FILLER_0_91_461
*6520 FILLER_0_91_473
*6521 FILLER_0_91_485
*6522 FILLER_0_91_497
*6523 FILLER_0_91_503
*6524 FILLER_0_91_505
*6525 FILLER_0_91_51
*6526 FILLER_0_91_517
*6527 FILLER_0_91_529
*6528 FILLER_0_91_541
*6529 FILLER_0_91_55
*6530 FILLER_0_91_553
*6531 FILLER_0_91_559
*6532 FILLER_0_91_561
*6533 FILLER_0_91_57
*6534 FILLER_0_91_573
*6535 FILLER_0_91_585
*6536 FILLER_0_91_597
*6537 FILLER_0_91_609
*6538 FILLER_0_91_615
*6539 FILLER_0_91_617
*6540 FILLER_0_91_69
*6541 FILLER_0_91_81
*6542 FILLER_0_91_93
*6543 FILLER_0_92_109
*6544 FILLER_0_92_121
*6545 FILLER_0_92_133
*6546 FILLER_0_92_139
*6547 FILLER_0_92_141
*6548 FILLER_0_92_15
*6549 FILLER_0_92_153
*6550 FILLER_0_92_165
*6551 FILLER_0_92_177
*6552 FILLER_0_92_189
*6553 FILLER_0_92_195
*6554 FILLER_0_92_197
*6555 FILLER_0_92_209
*6556 FILLER_0_92_221
*6557 FILLER_0_92_233
*6558 FILLER_0_92_245
*6559 FILLER_0_92_251
*6560 FILLER_0_92_253
*6561 FILLER_0_92_265
*6562 FILLER_0_92_27
*6563 FILLER_0_92_277
*6564 FILLER_0_92_289
*6565 FILLER_0_92_29
*6566 FILLER_0_92_3
*6567 FILLER_0_92_301
*6568 FILLER_0_92_307
*6569 FILLER_0_92_309
*6570 FILLER_0_92_321
*6571 FILLER_0_92_333
*6572 FILLER_0_92_345
*6573 FILLER_0_92_357
*6574 FILLER_0_92_363
*6575 FILLER_0_92_365
*6576 FILLER_0_92_377
*6577 FILLER_0_92_389
*6578 FILLER_0_92_401
*6579 FILLER_0_92_41
*6580 FILLER_0_92_413
*6581 FILLER_0_92_419
*6582 FILLER_0_92_421
*6583 FILLER_0_92_433
*6584 FILLER_0_92_445
*6585 FILLER_0_92_457
*6586 FILLER_0_92_469
*6587 FILLER_0_92_475
*6588 FILLER_0_92_477
*6589 FILLER_0_92_489
*6590 FILLER_0_92_501
*6591 FILLER_0_92_513
*6592 FILLER_0_92_525
*6593 FILLER_0_92_53
*6594 FILLER_0_92_531
*6595 FILLER_0_92_533
*6596 FILLER_0_92_545
*6597 FILLER_0_92_557
*6598 FILLER_0_92_569
*6599 FILLER_0_92_581
*6600 FILLER_0_92_587
*6601 FILLER_0_92_589
*6602 FILLER_0_92_601
*6603 FILLER_0_92_613
*6604 FILLER_0_92_65
*6605 FILLER_0_92_77
*6606 FILLER_0_92_83
*6607 FILLER_0_92_85
*6608 FILLER_0_92_97
*6609 FILLER_0_93_105
*6610 FILLER_0_93_111
*6611 FILLER_0_93_113
*6612 FILLER_0_93_125
*6613 FILLER_0_93_137
*6614 FILLER_0_93_149
*6615 FILLER_0_93_15
*6616 FILLER_0_93_161
*6617 FILLER_0_93_167
*6618 FILLER_0_93_169
*6619 FILLER_0_93_181
*6620 FILLER_0_93_193
*6621 FILLER_0_93_205
*6622 FILLER_0_93_217
*6623 FILLER_0_93_223
*6624 FILLER_0_93_225
*6625 FILLER_0_93_237
*6626 FILLER_0_93_249
*6627 FILLER_0_93_261
*6628 FILLER_0_93_27
*6629 FILLER_0_93_273
*6630 FILLER_0_93_279
*6631 FILLER_0_93_281
*6632 FILLER_0_93_293
*6633 FILLER_0_93_3
*6634 FILLER_0_93_305
*6635 FILLER_0_93_317
*6636 FILLER_0_93_329
*6637 FILLER_0_93_335
*6638 FILLER_0_93_337
*6639 FILLER_0_93_349
*6640 FILLER_0_93_361
*6641 FILLER_0_93_373
*6642 FILLER_0_93_385
*6643 FILLER_0_93_39
*6644 FILLER_0_93_391
*6645 FILLER_0_93_393
*6646 FILLER_0_93_405
*6647 FILLER_0_93_417
*6648 FILLER_0_93_429
*6649 FILLER_0_93_441
*6650 FILLER_0_93_447
*6651 FILLER_0_93_449
*6652 FILLER_0_93_461
*6653 FILLER_0_93_473
*6654 FILLER_0_93_485
*6655 FILLER_0_93_497
*6656 FILLER_0_93_503
*6657 FILLER_0_93_505
*6658 FILLER_0_93_51
*6659 FILLER_0_93_517
*6660 FILLER_0_93_529
*6661 FILLER_0_93_541
*6662 FILLER_0_93_55
*6663 FILLER_0_93_553
*6664 FILLER_0_93_559
*6665 FILLER_0_93_561
*6666 FILLER_0_93_57
*6667 FILLER_0_93_573
*6668 FILLER_0_93_585
*6669 FILLER_0_93_597
*6670 FILLER_0_93_609
*6671 FILLER_0_93_615
*6672 FILLER_0_93_617
*6673 FILLER_0_93_69
*6674 FILLER_0_93_81
*6675 FILLER_0_93_93
*6676 FILLER_0_94_109
*6677 FILLER_0_94_121
*6678 FILLER_0_94_133
*6679 FILLER_0_94_139
*6680 FILLER_0_94_141
*6681 FILLER_0_94_15
*6682 FILLER_0_94_153
*6683 FILLER_0_94_165
*6684 FILLER_0_94_177
*6685 FILLER_0_94_189
*6686 FILLER_0_94_195
*6687 FILLER_0_94_197
*6688 FILLER_0_94_209
*6689 FILLER_0_94_221
*6690 FILLER_0_94_233
*6691 FILLER_0_94_245
*6692 FILLER_0_94_251
*6693 FILLER_0_94_253
*6694 FILLER_0_94_265
*6695 FILLER_0_94_27
*6696 FILLER_0_94_277
*6697 FILLER_0_94_289
*6698 FILLER_0_94_29
*6699 FILLER_0_94_3
*6700 FILLER_0_94_301
*6701 FILLER_0_94_307
*6702 FILLER_0_94_309
*6703 FILLER_0_94_321
*6704 FILLER_0_94_333
*6705 FILLER_0_94_345
*6706 FILLER_0_94_357
*6707 FILLER_0_94_363
*6708 FILLER_0_94_365
*6709 FILLER_0_94_377
*6710 FILLER_0_94_389
*6711 FILLER_0_94_401
*6712 FILLER_0_94_41
*6713 FILLER_0_94_413
*6714 FILLER_0_94_419
*6715 FILLER_0_94_421
*6716 FILLER_0_94_433
*6717 FILLER_0_94_445
*6718 FILLER_0_94_457
*6719 FILLER_0_94_469
*6720 FILLER_0_94_475
*6721 FILLER_0_94_477
*6722 FILLER_0_94_489
*6723 FILLER_0_94_501
*6724 FILLER_0_94_513
*6725 FILLER_0_94_525
*6726 FILLER_0_94_53
*6727 FILLER_0_94_531
*6728 FILLER_0_94_533
*6729 FILLER_0_94_545
*6730 FILLER_0_94_557
*6731 FILLER_0_94_569
*6732 FILLER_0_94_581
*6733 FILLER_0_94_587
*6734 FILLER_0_94_589
*6735 FILLER_0_94_601
*6736 FILLER_0_94_613
*6737 FILLER_0_94_65
*6738 FILLER_0_94_77
*6739 FILLER_0_94_83
*6740 FILLER_0_94_85
*6741 FILLER_0_94_97
*6742 FILLER_0_95_105
*6743 FILLER_0_95_111
*6744 FILLER_0_95_113
*6745 FILLER_0_95_125
*6746 FILLER_0_95_137
*6747 FILLER_0_95_149
*6748 FILLER_0_95_15
*6749 FILLER_0_95_161
*6750 FILLER_0_95_167
*6751 FILLER_0_95_169
*6752 FILLER_0_95_181
*6753 FILLER_0_95_193
*6754 FILLER_0_95_205
*6755 FILLER_0_95_217
*6756 FILLER_0_95_223
*6757 FILLER_0_95_225
*6758 FILLER_0_95_237
*6759 FILLER_0_95_249
*6760 FILLER_0_95_261
*6761 FILLER_0_95_27
*6762 FILLER_0_95_273
*6763 FILLER_0_95_279
*6764 FILLER_0_95_281
*6765 FILLER_0_95_293
*6766 FILLER_0_95_3
*6767 FILLER_0_95_305
*6768 FILLER_0_95_317
*6769 FILLER_0_95_329
*6770 FILLER_0_95_335
*6771 FILLER_0_95_337
*6772 FILLER_0_95_349
*6773 FILLER_0_95_361
*6774 FILLER_0_95_373
*6775 FILLER_0_95_385
*6776 FILLER_0_95_39
*6777 FILLER_0_95_391
*6778 FILLER_0_95_393
*6779 FILLER_0_95_405
*6780 FILLER_0_95_417
*6781 FILLER_0_95_429
*6782 FILLER_0_95_441
*6783 FILLER_0_95_447
*6784 FILLER_0_95_449
*6785 FILLER_0_95_461
*6786 FILLER_0_95_473
*6787 FILLER_0_95_485
*6788 FILLER_0_95_497
*6789 FILLER_0_95_503
*6790 FILLER_0_95_505
*6791 FILLER_0_95_51
*6792 FILLER_0_95_517
*6793 FILLER_0_95_529
*6794 FILLER_0_95_541
*6795 FILLER_0_95_55
*6796 FILLER_0_95_553
*6797 FILLER_0_95_559
*6798 FILLER_0_95_561
*6799 FILLER_0_95_57
*6800 FILLER_0_95_573
*6801 FILLER_0_95_585
*6802 FILLER_0_95_597
*6803 FILLER_0_95_609
*6804 FILLER_0_95_615
*6805 FILLER_0_95_617
*6806 FILLER_0_95_69
*6807 FILLER_0_95_81
*6808 FILLER_0_95_93
*6809 FILLER_0_96_109
*6810 FILLER_0_96_121
*6811 FILLER_0_96_133
*6812 FILLER_0_96_139
*6813 FILLER_0_96_141
*6814 FILLER_0_96_15
*6815 FILLER_0_96_153
*6816 FILLER_0_96_165
*6817 FILLER_0_96_177
*6818 FILLER_0_96_189
*6819 FILLER_0_96_195
*6820 FILLER_0_96_197
*6821 FILLER_0_96_209
*6822 FILLER_0_96_221
*6823 FILLER_0_96_233
*6824 FILLER_0_96_245
*6825 FILLER_0_96_251
*6826 FILLER_0_96_253
*6827 FILLER_0_96_265
*6828 FILLER_0_96_27
*6829 FILLER_0_96_277
*6830 FILLER_0_96_289
*6831 FILLER_0_96_29
*6832 FILLER_0_96_3
*6833 FILLER_0_96_301
*6834 FILLER_0_96_307
*6835 FILLER_0_96_309
*6836 FILLER_0_96_321
*6837 FILLER_0_96_333
*6838 FILLER_0_96_345
*6839 FILLER_0_96_357
*6840 FILLER_0_96_363
*6841 FILLER_0_96_365
*6842 FILLER_0_96_377
*6843 FILLER_0_96_389
*6844 FILLER_0_96_401
*6845 FILLER_0_96_41
*6846 FILLER_0_96_413
*6847 FILLER_0_96_419
*6848 FILLER_0_96_421
*6849 FILLER_0_96_433
*6850 FILLER_0_96_445
*6851 FILLER_0_96_457
*6852 FILLER_0_96_469
*6853 FILLER_0_96_475
*6854 FILLER_0_96_477
*6855 FILLER_0_96_489
*6856 FILLER_0_96_501
*6857 FILLER_0_96_513
*6858 FILLER_0_96_525
*6859 FILLER_0_96_53
*6860 FILLER_0_96_531
*6861 FILLER_0_96_533
*6862 FILLER_0_96_545
*6863 FILLER_0_96_557
*6864 FILLER_0_96_569
*6865 FILLER_0_96_581
*6866 FILLER_0_96_587
*6867 FILLER_0_96_589
*6868 FILLER_0_96_601
*6869 FILLER_0_96_613
*6870 FILLER_0_96_65
*6871 FILLER_0_96_77
*6872 FILLER_0_96_83
*6873 FILLER_0_96_85
*6874 FILLER_0_96_97
*6875 FILLER_0_97_105
*6876 FILLER_0_97_111
*6877 FILLER_0_97_113
*6878 FILLER_0_97_125
*6879 FILLER_0_97_137
*6880 FILLER_0_97_143
*6881 FILLER_0_97_15
*6882 FILLER_0_97_150
*6883 FILLER_0_97_162
*6884 FILLER_0_97_169
*6885 FILLER_0_97_181
*6886 FILLER_0_97_193
*6887 FILLER_0_97_205
*6888 FILLER_0_97_217
*6889 FILLER_0_97_223
*6890 FILLER_0_97_225
*6891 FILLER_0_97_237
*6892 FILLER_0_97_249
*6893 FILLER_0_97_261
*6894 FILLER_0_97_27
*6895 FILLER_0_97_273
*6896 FILLER_0_97_279
*6897 FILLER_0_97_281
*6898 FILLER_0_97_293
*6899 FILLER_0_97_3
*6900 FILLER_0_97_305
*6901 FILLER_0_97_317
*6902 FILLER_0_97_329
*6903 FILLER_0_97_335
*6904 FILLER_0_97_337
*6905 FILLER_0_97_349
*6906 FILLER_0_97_361
*6907 FILLER_0_97_373
*6908 FILLER_0_97_385
*6909 FILLER_0_97_39
*6910 FILLER_0_97_391
*6911 FILLER_0_97_393
*6912 FILLER_0_97_405
*6913 FILLER_0_97_417
*6914 FILLER_0_97_429
*6915 FILLER_0_97_441
*6916 FILLER_0_97_447
*6917 FILLER_0_97_449
*6918 FILLER_0_97_461
*6919 FILLER_0_97_473
*6920 FILLER_0_97_485
*6921 FILLER_0_97_497
*6922 FILLER_0_97_503
*6923 FILLER_0_97_505
*6924 FILLER_0_97_51
*6925 FILLER_0_97_517
*6926 FILLER_0_97_529
*6927 FILLER_0_97_541
*6928 FILLER_0_97_55
*6929 FILLER_0_97_553
*6930 FILLER_0_97_559
*6931 FILLER_0_97_561
*6932 FILLER_0_97_57
*6933 FILLER_0_97_573
*6934 FILLER_0_97_585
*6935 FILLER_0_97_597
*6936 FILLER_0_97_609
*6937 FILLER_0_97_615
*6938 FILLER_0_97_617
*6939 FILLER_0_97_69
*6940 FILLER_0_97_81
*6941 FILLER_0_97_93
*6942 FILLER_0_98_109
*6943 FILLER_0_98_118
*6944 FILLER_0_98_130
*6945 FILLER_0_98_138
*6946 FILLER_0_98_141
*6947 FILLER_0_98_153
*6948 FILLER_0_98_165
*6949 FILLER_0_98_177
*6950 FILLER_0_98_189
*6951 FILLER_0_98_19
*6952 FILLER_0_98_195
*6953 FILLER_0_98_197
*6954 FILLER_0_98_209
*6955 FILLER_0_98_221
*6956 FILLER_0_98_233
*6957 FILLER_0_98_245
*6958 FILLER_0_98_251
*6959 FILLER_0_98_253
*6960 FILLER_0_98_265
*6961 FILLER_0_98_27
*6962 FILLER_0_98_277
*6963 FILLER_0_98_289
*6964 FILLER_0_98_29
*6965 FILLER_0_98_301
*6966 FILLER_0_98_307
*6967 FILLER_0_98_309
*6968 FILLER_0_98_321
*6969 FILLER_0_98_333
*6970 FILLER_0_98_345
*6971 FILLER_0_98_357
*6972 FILLER_0_98_363
*6973 FILLER_0_98_365
*6974 FILLER_0_98_377
*6975 FILLER_0_98_389
*6976 FILLER_0_98_401
*6977 FILLER_0_98_41
*6978 FILLER_0_98_413
*6979 FILLER_0_98_419
*6980 FILLER_0_98_421
*6981 FILLER_0_98_433
*6982 FILLER_0_98_445
*6983 FILLER_0_98_457
*6984 FILLER_0_98_469
*6985 FILLER_0_98_475
*6986 FILLER_0_98_477
*6987 FILLER_0_98_489
*6988 FILLER_0_98_501
*6989 FILLER_0_98_513
*6990 FILLER_0_98_525
*6991 FILLER_0_98_53
*6992 FILLER_0_98_531
*6993 FILLER_0_98_533
*6994 FILLER_0_98_545
*6995 FILLER_0_98_557
*6996 FILLER_0_98_569
*6997 FILLER_0_98_581
*6998 FILLER_0_98_587
*6999 FILLER_0_98_589
*7000 FILLER_0_98_601
*7001 FILLER_0_98_613
*7002 FILLER_0_98_621
*7003 FILLER_0_98_65
*7004 FILLER_0_98_7
*7005 FILLER_0_98_77
*7006 FILLER_0_98_83
*7007 FILLER_0_98_85
*7008 FILLER_0_98_97
*7009 FILLER_0_99_101
*7010 FILLER_0_99_109
*7011 FILLER_0_99_113
*7012 FILLER_0_99_125
*7013 FILLER_0_99_137
*7014 FILLER_0_99_149
*7015 FILLER_0_99_15
*7016 FILLER_0_99_161
*7017 FILLER_0_99_167
*7018 FILLER_0_99_169
*7019 FILLER_0_99_181
*7020 FILLER_0_99_193
*7021 FILLER_0_99_205
*7022 FILLER_0_99_217
*7023 FILLER_0_99_223
*7024 FILLER_0_99_225
*7025 FILLER_0_99_237
*7026 FILLER_0_99_249
*7027 FILLER_0_99_261
*7028 FILLER_0_99_27
*7029 FILLER_0_99_273
*7030 FILLER_0_99_279
*7031 FILLER_0_99_281
*7032 FILLER_0_99_293
*7033 FILLER_0_99_3
*7034 FILLER_0_99_305
*7035 FILLER_0_99_317
*7036 FILLER_0_99_329
*7037 FILLER_0_99_335
*7038 FILLER_0_99_337
*7039 FILLER_0_99_349
*7040 FILLER_0_99_361
*7041 FILLER_0_99_373
*7042 FILLER_0_99_385
*7043 FILLER_0_99_39
*7044 FILLER_0_99_391
*7045 FILLER_0_99_393
*7046 FILLER_0_99_405
*7047 FILLER_0_99_417
*7048 FILLER_0_99_429
*7049 FILLER_0_99_441
*7050 FILLER_0_99_447
*7051 FILLER_0_99_449
*7052 FILLER_0_99_461
*7053 FILLER_0_99_473
*7054 FILLER_0_99_485
*7055 FILLER_0_99_497
*7056 FILLER_0_99_503
*7057 FILLER_0_99_505
*7058 FILLER_0_99_51
*7059 FILLER_0_99_517
*7060 FILLER_0_99_529
*7061 FILLER_0_99_541
*7062 FILLER_0_99_55
*7063 FILLER_0_99_553
*7064 FILLER_0_99_559
*7065 FILLER_0_99_561
*7066 FILLER_0_99_57
*7067 FILLER_0_99_573
*7068 FILLER_0_99_585
*7069 FILLER_0_99_597
*7070 FILLER_0_99_609
*7071 FILLER_0_99_615
*7072 FILLER_0_99_617
*7073 FILLER_0_99_69
*7074 FILLER_0_99_81
*7075 FILLER_0_99_93
*7076 FILLER_0_9_105
*7077 FILLER_0_9_111
*7078 FILLER_0_9_113
*7079 FILLER_0_9_125
*7080 FILLER_0_9_137
*7081 FILLER_0_9_149
*7082 FILLER_0_9_15
*7083 FILLER_0_9_161
*7084 FILLER_0_9_167
*7085 FILLER_0_9_169
*7086 FILLER_0_9_175
*7087 FILLER_0_9_183
*7088 FILLER_0_9_219
*7089 FILLER_0_9_223
*7090 FILLER_0_9_225
*7091 FILLER_0_9_233
*7092 FILLER_0_9_239
*7093 FILLER_0_9_251
*7094 FILLER_0_9_263
*7095 FILLER_0_9_27
*7096 FILLER_0_9_281
*7097 FILLER_0_9_293
*7098 FILLER_0_9_3
*7099 FILLER_0_9_305
*7100 FILLER_0_9_317
*7101 FILLER_0_9_329
*7102 FILLER_0_9_335
*7103 FILLER_0_9_337
*7104 FILLER_0_9_349
*7105 FILLER_0_9_361
*7106 FILLER_0_9_373
*7107 FILLER_0_9_385
*7108 FILLER_0_9_39
*7109 FILLER_0_9_391
*7110 FILLER_0_9_393
*7111 FILLER_0_9_405
*7112 FILLER_0_9_417
*7113 FILLER_0_9_429
*7114 FILLER_0_9_441
*7115 FILLER_0_9_447
*7116 FILLER_0_9_449
*7117 FILLER_0_9_461
*7118 FILLER_0_9_473
*7119 FILLER_0_9_485
*7120 FILLER_0_9_497
*7121 FILLER_0_9_503
*7122 FILLER_0_9_505
*7123 FILLER_0_9_51
*7124 FILLER_0_9_517
*7125 FILLER_0_9_529
*7126 FILLER_0_9_541
*7127 FILLER_0_9_55
*7128 FILLER_0_9_553
*7129 FILLER_0_9_559
*7130 FILLER_0_9_561
*7131 FILLER_0_9_57
*7132 FILLER_0_9_573
*7133 FILLER_0_9_585
*7134 FILLER_0_9_597
*7135 FILLER_0_9_609
*7136 FILLER_0_9_615
*7137 FILLER_0_9_617
*7138 FILLER_0_9_69
*7139 FILLER_0_9_81
*7140 FILLER_0_9_93
*7141 PHY_0
*7142 PHY_1
*7143 PHY_10
*7144 PHY_100
*7145 PHY_101
*7146 PHY_102
*7147 PHY_103
*7148 PHY_104
*7149 PHY_105
*7150 PHY_106
*7151 PHY_107
*7152 PHY_108
*7153 PHY_109
*7154 PHY_11
*7155 PHY_110
*7156 PHY_111
*7157 PHY_112
*7158 PHY_113
*7159 PHY_114
*7160 PHY_115
*7161 PHY_116
*7162 PHY_117
*7163 PHY_118
*7164 PHY_119
*7165 PHY_12
*7166 PHY_120
*7167 PHY_121
*7168 PHY_122
*7169 PHY_123
*7170 PHY_124
*7171 PHY_125
*7172 PHY_126
*7173 PHY_127
*7174 PHY_128
*7175 PHY_129
*7176 PHY_13
*7177 PHY_130
*7178 PHY_131
*7179 PHY_132
*7180 PHY_133
*7181 PHY_134
*7182 PHY_135
*7183 PHY_136
*7184 PHY_137
*7185 PHY_138
*7186 PHY_139
*7187 PHY_14
*7188 PHY_140
*7189 PHY_141
*7190 PHY_142
*7191 PHY_143
*7192 PHY_144
*7193 PHY_145
*7194 PHY_146
*7195 PHY_147
*7196 PHY_148
*7197 PHY_149
*7198 PHY_15
*7199 PHY_150
*7200 PHY_151
*7201 PHY_152
*7202 PHY_153
*7203 PHY_154
*7204 PHY_155
*7205 PHY_156
*7206 PHY_157
*7207 PHY_158
*7208 PHY_159
*7209 PHY_16
*7210 PHY_160
*7211 PHY_161
*7212 PHY_162
*7213 PHY_163
*7214 PHY_164
*7215 PHY_165
*7216 PHY_166
*7217 PHY_167
*7218 PHY_168
*7219 PHY_169
*7220 PHY_17
*7221 PHY_170
*7222 PHY_171
*7223 PHY_172
*7224 PHY_173
*7225 PHY_174
*7226 PHY_175
*7227 PHY_176
*7228 PHY_177
*7229 PHY_178
*7230 PHY_179
*7231 PHY_18
*7232 PHY_180
*7233 PHY_181
*7234 PHY_182
*7235 PHY_183
*7236 PHY_184
*7237 PHY_185
*7238 PHY_186
*7239 PHY_187
*7240 PHY_188
*7241 PHY_189
*7242 PHY_19
*7243 PHY_190
*7244 PHY_191
*7245 PHY_192
*7246 PHY_193
*7247 PHY_194
*7248 PHY_195
*7249 PHY_196
*7250 PHY_197
*7251 PHY_198
*7252 PHY_199
*7253 PHY_2
*7254 PHY_20
*7255 PHY_200
*7256 PHY_201
*7257 PHY_202
*7258 PHY_203
*7259 PHY_21
*7260 PHY_22
*7261 PHY_23
*7262 PHY_24
*7263 PHY_25
*7264 PHY_26
*7265 PHY_27
*7266 PHY_28
*7267 PHY_29
*7268 PHY_3
*7269 PHY_30
*7270 PHY_31
*7271 PHY_32
*7272 PHY_33
*7273 PHY_34
*7274 PHY_35
*7275 PHY_36
*7276 PHY_37
*7277 PHY_38
*7278 PHY_39
*7279 PHY_4
*7280 PHY_40
*7281 PHY_41
*7282 PHY_42
*7283 PHY_43
*7284 PHY_44
*7285 PHY_45
*7286 PHY_46
*7287 PHY_47
*7288 PHY_48
*7289 PHY_49
*7290 PHY_5
*7291 PHY_50
*7292 PHY_51
*7293 PHY_52
*7294 PHY_53
*7295 PHY_54
*7296 PHY_55
*7297 PHY_56
*7298 PHY_57
*7299 PHY_58
*7300 PHY_59
*7301 PHY_6
*7302 PHY_60
*7303 PHY_61
*7304 PHY_62
*7305 PHY_63
*7306 PHY_64
*7307 PHY_65
*7308 PHY_66
*7309 PHY_67
*7310 PHY_68
*7311 PHY_69
*7312 PHY_7
*7313 PHY_70
*7314 PHY_71
*7315 PHY_72
*7316 PHY_73
*7317 PHY_74
*7318 PHY_75
*7319 PHY_76
*7320 PHY_77
*7321 PHY_78
*7322 PHY_79
*7323 PHY_8
*7324 PHY_80
*7325 PHY_81
*7326 PHY_82
*7327 PHY_83
*7328 PHY_84
*7329 PHY_85
*7330 PHY_86
*7331 PHY_87
*7332 PHY_88
*7333 PHY_89
*7334 PHY_9
*7335 PHY_90
*7336 PHY_91
*7337 PHY_92
*7338 PHY_93
*7339 PHY_94
*7340 PHY_95
*7341 PHY_96
*7342 PHY_97
*7343 PHY_98
*7344 PHY_99
*7345 TAP_1000
*7346 TAP_1001
*7347 TAP_1002
*7348 TAP_1003
*7349 TAP_1004
*7350 TAP_1005
*7351 TAP_1006
*7352 TAP_1007
*7353 TAP_1008
*7354 TAP_1009
*7355 TAP_1010
*7356 TAP_1011
*7357 TAP_1012
*7358 TAP_1013
*7359 TAP_1014
*7360 TAP_1015
*7361 TAP_1016
*7362 TAP_1017
*7363 TAP_1018
*7364 TAP_1019
*7365 TAP_1020
*7366 TAP_1021
*7367 TAP_1022
*7368 TAP_1023
*7369 TAP_1024
*7370 TAP_1025
*7371 TAP_1026
*7372 TAP_1027
*7373 TAP_1028
*7374 TAP_1029
*7375 TAP_1030
*7376 TAP_1031
*7377 TAP_1032
*7378 TAP_1033
*7379 TAP_1034
*7380 TAP_1035
*7381 TAP_1036
*7382 TAP_1037
*7383 TAP_1038
*7384 TAP_1039
*7385 TAP_1040
*7386 TAP_1041
*7387 TAP_1042
*7388 TAP_1043
*7389 TAP_1044
*7390 TAP_1045
*7391 TAP_1046
*7392 TAP_1047
*7393 TAP_1048
*7394 TAP_1049
*7395 TAP_1050
*7396 TAP_1051
*7397 TAP_1052
*7398 TAP_1053
*7399 TAP_1054
*7400 TAP_1055
*7401 TAP_1056
*7402 TAP_1057
*7403 TAP_1058
*7404 TAP_1059
*7405 TAP_1060
*7406 TAP_1061
*7407 TAP_1062
*7408 TAP_1063
*7409 TAP_1064
*7410 TAP_1065
*7411 TAP_1066
*7412 TAP_1067
*7413 TAP_1068
*7414 TAP_1069
*7415 TAP_1070
*7416 TAP_1071
*7417 TAP_1072
*7418 TAP_1073
*7419 TAP_1074
*7420 TAP_1075
*7421 TAP_1076
*7422 TAP_1077
*7423 TAP_1078
*7424 TAP_1079
*7425 TAP_1080
*7426 TAP_1081
*7427 TAP_1082
*7428 TAP_1083
*7429 TAP_1084
*7430 TAP_1085
*7431 TAP_1086
*7432 TAP_1087
*7433 TAP_1088
*7434 TAP_1089
*7435 TAP_1090
*7436 TAP_1091
*7437 TAP_1092
*7438 TAP_1093
*7439 TAP_1094
*7440 TAP_1095
*7441 TAP_1096
*7442 TAP_1097
*7443 TAP_1098
*7444 TAP_1099
*7445 TAP_1100
*7446 TAP_1101
*7447 TAP_1102
*7448 TAP_1103
*7449 TAP_1104
*7450 TAP_1105
*7451 TAP_1106
*7452 TAP_1107
*7453 TAP_1108
*7454 TAP_1109
*7455 TAP_1110
*7456 TAP_1111
*7457 TAP_1112
*7458 TAP_1113
*7459 TAP_1114
*7460 TAP_1115
*7461 TAP_1116
*7462 TAP_1117
*7463 TAP_1118
*7464 TAP_1119
*7465 TAP_1120
*7466 TAP_1121
*7467 TAP_1122
*7468 TAP_1123
*7469 TAP_1124
*7470 TAP_1125
*7471 TAP_1126
*7472 TAP_1127
*7473 TAP_1128
*7474 TAP_1129
*7475 TAP_1130
*7476 TAP_1131
*7477 TAP_1132
*7478 TAP_1133
*7479 TAP_1134
*7480 TAP_1135
*7481 TAP_1136
*7482 TAP_1137
*7483 TAP_1138
*7484 TAP_1139
*7485 TAP_1140
*7486 TAP_1141
*7487 TAP_1142
*7488 TAP_1143
*7489 TAP_1144
*7490 TAP_1145
*7491 TAP_1146
*7492 TAP_1147
*7493 TAP_1148
*7494 TAP_1149
*7495 TAP_1150
*7496 TAP_1151
*7497 TAP_1152
*7498 TAP_1153
*7499 TAP_1154
*7500 TAP_1155
*7501 TAP_1156
*7502 TAP_1157
*7503 TAP_1158
*7504 TAP_1159
*7505 TAP_1160
*7506 TAP_1161
*7507 TAP_1162
*7508 TAP_1163
*7509 TAP_1164
*7510 TAP_1165
*7511 TAP_1166
*7512 TAP_1167
*7513 TAP_1168
*7514 TAP_1169
*7515 TAP_1170
*7516 TAP_1171
*7517 TAP_1172
*7518 TAP_1173
*7519 TAP_1174
*7520 TAP_1175
*7521 TAP_1176
*7522 TAP_1177
*7523 TAP_1178
*7524 TAP_1179
*7525 TAP_1180
*7526 TAP_1181
*7527 TAP_1182
*7528 TAP_1183
*7529 TAP_1184
*7530 TAP_1185
*7531 TAP_1186
*7532 TAP_1187
*7533 TAP_1188
*7534 TAP_1189
*7535 TAP_1190
*7536 TAP_1191
*7537 TAP_1192
*7538 TAP_1193
*7539 TAP_1194
*7540 TAP_1195
*7541 TAP_1196
*7542 TAP_1197
*7543 TAP_1198
*7544 TAP_1199
*7545 TAP_1200
*7546 TAP_1201
*7547 TAP_1202
*7548 TAP_1203
*7549 TAP_1204
*7550 TAP_1205
*7551 TAP_1206
*7552 TAP_1207
*7553 TAP_1208
*7554 TAP_1209
*7555 TAP_1210
*7556 TAP_1211
*7557 TAP_1212
*7558 TAP_1213
*7559 TAP_1214
*7560 TAP_1215
*7561 TAP_1216
*7562 TAP_1217
*7563 TAP_1218
*7564 TAP_1219
*7565 TAP_1220
*7566 TAP_1221
*7567 TAP_1222
*7568 TAP_1223
*7569 TAP_1224
*7570 TAP_1225
*7571 TAP_1226
*7572 TAP_1227
*7573 TAP_1228
*7574 TAP_1229
*7575 TAP_1230
*7576 TAP_1231
*7577 TAP_1232
*7578 TAP_1233
*7579 TAP_1234
*7580 TAP_1235
*7581 TAP_1236
*7582 TAP_1237
*7583 TAP_1238
*7584 TAP_1239
*7585 TAP_1240
*7586 TAP_1241
*7587 TAP_1242
*7588 TAP_1243
*7589 TAP_1244
*7590 TAP_1245
*7591 TAP_1246
*7592 TAP_1247
*7593 TAP_1248
*7594 TAP_1249
*7595 TAP_1250
*7596 TAP_1251
*7597 TAP_1252
*7598 TAP_1253
*7599 TAP_1254
*7600 TAP_1255
*7601 TAP_1256
*7602 TAP_1257
*7603 TAP_1258
*7604 TAP_1259
*7605 TAP_1260
*7606 TAP_1261
*7607 TAP_1262
*7608 TAP_1263
*7609 TAP_1264
*7610 TAP_1265
*7611 TAP_1266
*7612 TAP_1267
*7613 TAP_1268
*7614 TAP_1269
*7615 TAP_1270
*7616 TAP_1271
*7617 TAP_1272
*7618 TAP_1273
*7619 TAP_1274
*7620 TAP_1275
*7621 TAP_1276
*7622 TAP_1277
*7623 TAP_1278
*7624 TAP_1279
*7625 TAP_1280
*7626 TAP_1281
*7627 TAP_1282
*7628 TAP_1283
*7629 TAP_1284
*7630 TAP_1285
*7631 TAP_1286
*7632 TAP_1287
*7633 TAP_1288
*7634 TAP_1289
*7635 TAP_1290
*7636 TAP_1291
*7637 TAP_1292
*7638 TAP_1293
*7639 TAP_1294
*7640 TAP_1295
*7641 TAP_1296
*7642 TAP_1297
*7643 TAP_1298
*7644 TAP_1299
*7645 TAP_1300
*7646 TAP_1301
*7647 TAP_1302
*7648 TAP_1303
*7649 TAP_1304
*7650 TAP_1305
*7651 TAP_1306
*7652 TAP_1307
*7653 TAP_1308
*7654 TAP_1309
*7655 TAP_1310
*7656 TAP_1311
*7657 TAP_1312
*7658 TAP_1313
*7659 TAP_1314
*7660 TAP_1315
*7661 TAP_1316
*7662 TAP_1317
*7663 TAP_1318
*7664 TAP_1319
*7665 TAP_1320
*7666 TAP_1321
*7667 TAP_1322
*7668 TAP_1323
*7669 TAP_1324
*7670 TAP_1325
*7671 TAP_1326
*7672 TAP_1327
*7673 TAP_1328
*7674 TAP_1329
*7675 TAP_1330
*7676 TAP_1331
*7677 TAP_1332
*7678 TAP_1333
*7679 TAP_1334
*7680 TAP_1335
*7681 TAP_1336
*7682 TAP_1337
*7683 TAP_1338
*7684 TAP_1339
*7685 TAP_1340
*7686 TAP_1341
*7687 TAP_1342
*7688 TAP_1343
*7689 TAP_1344
*7690 TAP_1345
*7691 TAP_1346
*7692 TAP_1347
*7693 TAP_204
*7694 TAP_205
*7695 TAP_206
*7696 TAP_207
*7697 TAP_208
*7698 TAP_209
*7699 TAP_210
*7700 TAP_211
*7701 TAP_212
*7702 TAP_213
*7703 TAP_214
*7704 TAP_215
*7705 TAP_216
*7706 TAP_217
*7707 TAP_218
*7708 TAP_219
*7709 TAP_220
*7710 TAP_221
*7711 TAP_222
*7712 TAP_223
*7713 TAP_224
*7714 TAP_225
*7715 TAP_226
*7716 TAP_227
*7717 TAP_228
*7718 TAP_229
*7719 TAP_230
*7720 TAP_231
*7721 TAP_232
*7722 TAP_233
*7723 TAP_234
*7724 TAP_235
*7725 TAP_236
*7726 TAP_237
*7727 TAP_238
*7728 TAP_239
*7729 TAP_240
*7730 TAP_241
*7731 TAP_242
*7732 TAP_243
*7733 TAP_244
*7734 TAP_245
*7735 TAP_246
*7736 TAP_247
*7737 TAP_248
*7738 TAP_249
*7739 TAP_250
*7740 TAP_251
*7741 TAP_252
*7742 TAP_253
*7743 TAP_254
*7744 TAP_255
*7745 TAP_256
*7746 TAP_257
*7747 TAP_258
*7748 TAP_259
*7749 TAP_260
*7750 TAP_261
*7751 TAP_262
*7752 TAP_263
*7753 TAP_264
*7754 TAP_265
*7755 TAP_266
*7756 TAP_267
*7757 TAP_268
*7758 TAP_269
*7759 TAP_270
*7760 TAP_271
*7761 TAP_272
*7762 TAP_273
*7763 TAP_274
*7764 TAP_275
*7765 TAP_276
*7766 TAP_277
*7767 TAP_278
*7768 TAP_279
*7769 TAP_280
*7770 TAP_281
*7771 TAP_282
*7772 TAP_283
*7773 TAP_284
*7774 TAP_285
*7775 TAP_286
*7776 TAP_287
*7777 TAP_288
*7778 TAP_289
*7779 TAP_290
*7780 TAP_291
*7781 TAP_292
*7782 TAP_293
*7783 TAP_294
*7784 TAP_295
*7785 TAP_296
*7786 TAP_297
*7787 TAP_298
*7788 TAP_299
*7789 TAP_300
*7790 TAP_301
*7791 TAP_302
*7792 TAP_303
*7793 TAP_304
*7794 TAP_305
*7795 TAP_306
*7796 TAP_307
*7797 TAP_308
*7798 TAP_309
*7799 TAP_310
*7800 TAP_311
*7801 TAP_312
*7802 TAP_313
*7803 TAP_314
*7804 TAP_315
*7805 TAP_316
*7806 TAP_317
*7807 TAP_318
*7808 TAP_319
*7809 TAP_320
*7810 TAP_321
*7811 TAP_322
*7812 TAP_323
*7813 TAP_324
*7814 TAP_325
*7815 TAP_326
*7816 TAP_327
*7817 TAP_328
*7818 TAP_329
*7819 TAP_330
*7820 TAP_331
*7821 TAP_332
*7822 TAP_333
*7823 TAP_334
*7824 TAP_335
*7825 TAP_336
*7826 TAP_337
*7827 TAP_338
*7828 TAP_339
*7829 TAP_340
*7830 TAP_341
*7831 TAP_342
*7832 TAP_343
*7833 TAP_344
*7834 TAP_345
*7835 TAP_346
*7836 TAP_347
*7837 TAP_348
*7838 TAP_349
*7839 TAP_350
*7840 TAP_351
*7841 TAP_352
*7842 TAP_353
*7843 TAP_354
*7844 TAP_355
*7845 TAP_356
*7846 TAP_357
*7847 TAP_358
*7848 TAP_359
*7849 TAP_360
*7850 TAP_361
*7851 TAP_362
*7852 TAP_363
*7853 TAP_364
*7854 TAP_365
*7855 TAP_366
*7856 TAP_367
*7857 TAP_368
*7858 TAP_369
*7859 TAP_370
*7860 TAP_371
*7861 TAP_372
*7862 TAP_373
*7863 TAP_374
*7864 TAP_375
*7865 TAP_376
*7866 TAP_377
*7867 TAP_378
*7868 TAP_379
*7869 TAP_380
*7870 TAP_381
*7871 TAP_382
*7872 TAP_383
*7873 TAP_384
*7874 TAP_385
*7875 TAP_386
*7876 TAP_387
*7877 TAP_388
*7878 TAP_389
*7879 TAP_390
*7880 TAP_391
*7881 TAP_392
*7882 TAP_393
*7883 TAP_394
*7884 TAP_395
*7885 TAP_396
*7886 TAP_397
*7887 TAP_398
*7888 TAP_399
*7889 TAP_400
*7890 TAP_401
*7891 TAP_402
*7892 TAP_403
*7893 TAP_404
*7894 TAP_405
*7895 TAP_406
*7896 TAP_407
*7897 TAP_408
*7898 TAP_409
*7899 TAP_410
*7900 TAP_411
*7901 TAP_412
*7902 TAP_413
*7903 TAP_414
*7904 TAP_415
*7905 TAP_416
*7906 TAP_417
*7907 TAP_418
*7908 TAP_419
*7909 TAP_420
*7910 TAP_421
*7911 TAP_422
*7912 TAP_423
*7913 TAP_424
*7914 TAP_425
*7915 TAP_426
*7916 TAP_427
*7917 TAP_428
*7918 TAP_429
*7919 TAP_430
*7920 TAP_431
*7921 TAP_432
*7922 TAP_433
*7923 TAP_434
*7924 TAP_435
*7925 TAP_436
*7926 TAP_437
*7927 TAP_438
*7928 TAP_439
*7929 TAP_440
*7930 TAP_441
*7931 TAP_442
*7932 TAP_443
*7933 TAP_444
*7934 TAP_445
*7935 TAP_446
*7936 TAP_447
*7937 TAP_448
*7938 TAP_449
*7939 TAP_450
*7940 TAP_451
*7941 TAP_452
*7942 TAP_453
*7943 TAP_454
*7944 TAP_455
*7945 TAP_456
*7946 TAP_457
*7947 TAP_458
*7948 TAP_459
*7949 TAP_460
*7950 TAP_461
*7951 TAP_462
*7952 TAP_463
*7953 TAP_464
*7954 TAP_465
*7955 TAP_466
*7956 TAP_467
*7957 TAP_468
*7958 TAP_469
*7959 TAP_470
*7960 TAP_471
*7961 TAP_472
*7962 TAP_473
*7963 TAP_474
*7964 TAP_475
*7965 TAP_476
*7966 TAP_477
*7967 TAP_478
*7968 TAP_479
*7969 TAP_480
*7970 TAP_481
*7971 TAP_482
*7972 TAP_483
*7973 TAP_484
*7974 TAP_485
*7975 TAP_486
*7976 TAP_487
*7977 TAP_488
*7978 TAP_489
*7979 TAP_490
*7980 TAP_491
*7981 TAP_492
*7982 TAP_493
*7983 TAP_494
*7984 TAP_495
*7985 TAP_496
*7986 TAP_497
*7987 TAP_498
*7988 TAP_499
*7989 TAP_500
*7990 TAP_501
*7991 TAP_502
*7992 TAP_503
*7993 TAP_504
*7994 TAP_505
*7995 TAP_506
*7996 TAP_507
*7997 TAP_508
*7998 TAP_509
*7999 TAP_510
*8000 TAP_511
*8001 TAP_512
*8002 TAP_513
*8003 TAP_514
*8004 TAP_515
*8005 TAP_516
*8006 TAP_517
*8007 TAP_518
*8008 TAP_519
*8009 TAP_520
*8010 TAP_521
*8011 TAP_522
*8012 TAP_523
*8013 TAP_524
*8014 TAP_525
*8015 TAP_526
*8016 TAP_527
*8017 TAP_528
*8018 TAP_529
*8019 TAP_530
*8020 TAP_531
*8021 TAP_532
*8022 TAP_533
*8023 TAP_534
*8024 TAP_535
*8025 TAP_536
*8026 TAP_537
*8027 TAP_538
*8028 TAP_539
*8029 TAP_540
*8030 TAP_541
*8031 TAP_542
*8032 TAP_543
*8033 TAP_544
*8034 TAP_545
*8035 TAP_546
*8036 TAP_547
*8037 TAP_548
*8038 TAP_549
*8039 TAP_550
*8040 TAP_551
*8041 TAP_552
*8042 TAP_553
*8043 TAP_554
*8044 TAP_555
*8045 TAP_556
*8046 TAP_557
*8047 TAP_558
*8048 TAP_559
*8049 TAP_560
*8050 TAP_561
*8051 TAP_562
*8052 TAP_563
*8053 TAP_564
*8054 TAP_565
*8055 TAP_566
*8056 TAP_567
*8057 TAP_568
*8058 TAP_569
*8059 TAP_570
*8060 TAP_571
*8061 TAP_572
*8062 TAP_573
*8063 TAP_574
*8064 TAP_575
*8065 TAP_576
*8066 TAP_577
*8067 TAP_578
*8068 TAP_579
*8069 TAP_580
*8070 TAP_581
*8071 TAP_582
*8072 TAP_583
*8073 TAP_584
*8074 TAP_585
*8075 TAP_586
*8076 TAP_587
*8077 TAP_588
*8078 TAP_589
*8079 TAP_590
*8080 TAP_591
*8081 TAP_592
*8082 TAP_593
*8083 TAP_594
*8084 TAP_595
*8085 TAP_596
*8086 TAP_597
*8087 TAP_598
*8088 TAP_599
*8089 TAP_600
*8090 TAP_601
*8091 TAP_602
*8092 TAP_603
*8093 TAP_604
*8094 TAP_605
*8095 TAP_606
*8096 TAP_607
*8097 TAP_608
*8098 TAP_609
*8099 TAP_610
*8100 TAP_611
*8101 TAP_612
*8102 TAP_613
*8103 TAP_614
*8104 TAP_615
*8105 TAP_616
*8106 TAP_617
*8107 TAP_618
*8108 TAP_619
*8109 TAP_620
*8110 TAP_621
*8111 TAP_622
*8112 TAP_623
*8113 TAP_624
*8114 TAP_625
*8115 TAP_626
*8116 TAP_627
*8117 TAP_628
*8118 TAP_629
*8119 TAP_630
*8120 TAP_631
*8121 TAP_632
*8122 TAP_633
*8123 TAP_634
*8124 TAP_635
*8125 TAP_636
*8126 TAP_637
*8127 TAP_638
*8128 TAP_639
*8129 TAP_640
*8130 TAP_641
*8131 TAP_642
*8132 TAP_643
*8133 TAP_644
*8134 TAP_645
*8135 TAP_646
*8136 TAP_647
*8137 TAP_648
*8138 TAP_649
*8139 TAP_650
*8140 TAP_651
*8141 TAP_652
*8142 TAP_653
*8143 TAP_654
*8144 TAP_655
*8145 TAP_656
*8146 TAP_657
*8147 TAP_658
*8148 TAP_659
*8149 TAP_660
*8150 TAP_661
*8151 TAP_662
*8152 TAP_663
*8153 TAP_664
*8154 TAP_665
*8155 TAP_666
*8156 TAP_667
*8157 TAP_668
*8158 TAP_669
*8159 TAP_670
*8160 TAP_671
*8161 TAP_672
*8162 TAP_673
*8163 TAP_674
*8164 TAP_675
*8165 TAP_676
*8166 TAP_677
*8167 TAP_678
*8168 TAP_679
*8169 TAP_680
*8170 TAP_681
*8171 TAP_682
*8172 TAP_683
*8173 TAP_684
*8174 TAP_685
*8175 TAP_686
*8176 TAP_687
*8177 TAP_688
*8178 TAP_689
*8179 TAP_690
*8180 TAP_691
*8181 TAP_692
*8182 TAP_693
*8183 TAP_694
*8184 TAP_695
*8185 TAP_696
*8186 TAP_697
*8187 TAP_698
*8188 TAP_699
*8189 TAP_700
*8190 TAP_701
*8191 TAP_702
*8192 TAP_703
*8193 TAP_704
*8194 TAP_705
*8195 TAP_706
*8196 TAP_707
*8197 TAP_708
*8198 TAP_709
*8199 TAP_710
*8200 TAP_711
*8201 TAP_712
*8202 TAP_713
*8203 TAP_714
*8204 TAP_715
*8205 TAP_716
*8206 TAP_717
*8207 TAP_718
*8208 TAP_719
*8209 TAP_720
*8210 TAP_721
*8211 TAP_722
*8212 TAP_723
*8213 TAP_724
*8214 TAP_725
*8215 TAP_726
*8216 TAP_727
*8217 TAP_728
*8218 TAP_729
*8219 TAP_730
*8220 TAP_731
*8221 TAP_732
*8222 TAP_733
*8223 TAP_734
*8224 TAP_735
*8225 TAP_736
*8226 TAP_737
*8227 TAP_738
*8228 TAP_739
*8229 TAP_740
*8230 TAP_741
*8231 TAP_742
*8232 TAP_743
*8233 TAP_744
*8234 TAP_745
*8235 TAP_746
*8236 TAP_747
*8237 TAP_748
*8238 TAP_749
*8239 TAP_750
*8240 TAP_751
*8241 TAP_752
*8242 TAP_753
*8243 TAP_754
*8244 TAP_755
*8245 TAP_756
*8246 TAP_757
*8247 TAP_758
*8248 TAP_759
*8249 TAP_760
*8250 TAP_761
*8251 TAP_762
*8252 TAP_763
*8253 TAP_764
*8254 TAP_765
*8255 TAP_766
*8256 TAP_767
*8257 TAP_768
*8258 TAP_769
*8259 TAP_770
*8260 TAP_771
*8261 TAP_772
*8262 TAP_773
*8263 TAP_774
*8264 TAP_775
*8265 TAP_776
*8266 TAP_777
*8267 TAP_778
*8268 TAP_779
*8269 TAP_780
*8270 TAP_781
*8271 TAP_782
*8272 TAP_783
*8273 TAP_784
*8274 TAP_785
*8275 TAP_786
*8276 TAP_787
*8277 TAP_788
*8278 TAP_789
*8279 TAP_790
*8280 TAP_791
*8281 TAP_792
*8282 TAP_793
*8283 TAP_794
*8284 TAP_795
*8285 TAP_796
*8286 TAP_797
*8287 TAP_798
*8288 TAP_799
*8289 TAP_800
*8290 TAP_801
*8291 TAP_802
*8292 TAP_803
*8293 TAP_804
*8294 TAP_805
*8295 TAP_806
*8296 TAP_807
*8297 TAP_808
*8298 TAP_809
*8299 TAP_810
*8300 TAP_811
*8301 TAP_812
*8302 TAP_813
*8303 TAP_814
*8304 TAP_815
*8305 TAP_816
*8306 TAP_817
*8307 TAP_818
*8308 TAP_819
*8309 TAP_820
*8310 TAP_821
*8311 TAP_822
*8312 TAP_823
*8313 TAP_824
*8314 TAP_825
*8315 TAP_826
*8316 TAP_827
*8317 TAP_828
*8318 TAP_829
*8319 TAP_830
*8320 TAP_831
*8321 TAP_832
*8322 TAP_833
*8323 TAP_834
*8324 TAP_835
*8325 TAP_836
*8326 TAP_837
*8327 TAP_838
*8328 TAP_839
*8329 TAP_840
*8330 TAP_841
*8331 TAP_842
*8332 TAP_843
*8333 TAP_844
*8334 TAP_845
*8335 TAP_846
*8336 TAP_847
*8337 TAP_848
*8338 TAP_849
*8339 TAP_850
*8340 TAP_851
*8341 TAP_852
*8342 TAP_853
*8343 TAP_854
*8344 TAP_855
*8345 TAP_856
*8346 TAP_857
*8347 TAP_858
*8348 TAP_859
*8349 TAP_860
*8350 TAP_861
*8351 TAP_862
*8352 TAP_863
*8353 TAP_864
*8354 TAP_865
*8355 TAP_866
*8356 TAP_867
*8357 TAP_868
*8358 TAP_869
*8359 TAP_870
*8360 TAP_871
*8361 TAP_872
*8362 TAP_873
*8363 TAP_874
*8364 TAP_875
*8365 TAP_876
*8366 TAP_877
*8367 TAP_878
*8368 TAP_879
*8369 TAP_880
*8370 TAP_881
*8371 TAP_882
*8372 TAP_883
*8373 TAP_884
*8374 TAP_885
*8375 TAP_886
*8376 TAP_887
*8377 TAP_888
*8378 TAP_889
*8379 TAP_890
*8380 TAP_891
*8381 TAP_892
*8382 TAP_893
*8383 TAP_894
*8384 TAP_895
*8385 TAP_896
*8386 TAP_897
*8387 TAP_898
*8388 TAP_899
*8389 TAP_900
*8390 TAP_901
*8391 TAP_902
*8392 TAP_903
*8393 TAP_904
*8394 TAP_905
*8395 TAP_906
*8396 TAP_907
*8397 TAP_908
*8398 TAP_909
*8399 TAP_910
*8400 TAP_911
*8401 TAP_912
*8402 TAP_913
*8403 TAP_914
*8404 TAP_915
*8405 TAP_916
*8406 TAP_917
*8407 TAP_918
*8408 TAP_919
*8409 TAP_920
*8410 TAP_921
*8411 TAP_922
*8412 TAP_923
*8413 TAP_924
*8414 TAP_925
*8415 TAP_926
*8416 TAP_927
*8417 TAP_928
*8418 TAP_929
*8419 TAP_930
*8420 TAP_931
*8421 TAP_932
*8422 TAP_933
*8423 TAP_934
*8424 TAP_935
*8425 TAP_936
*8426 TAP_937
*8427 TAP_938
*8428 TAP_939
*8429 TAP_940
*8430 TAP_941
*8431 TAP_942
*8432 TAP_943
*8433 TAP_944
*8434 TAP_945
*8435 TAP_946
*8436 TAP_947
*8437 TAP_948
*8438 TAP_949
*8439 TAP_950
*8440 TAP_951
*8441 TAP_952
*8442 TAP_953
*8443 TAP_954
*8444 TAP_955
*8445 TAP_956
*8446 TAP_957
*8447 TAP_958
*8448 TAP_959
*8449 TAP_960
*8450 TAP_961
*8451 TAP_962
*8452 TAP_963
*8453 TAP_964
*8454 TAP_965
*8455 TAP_966
*8456 TAP_967
*8457 TAP_968
*8458 TAP_969
*8459 TAP_970
*8460 TAP_971
*8461 TAP_972
*8462 TAP_973
*8463 TAP_974
*8464 TAP_975
*8465 TAP_976
*8466 TAP_977
*8467 TAP_978
*8468 TAP_979
*8469 TAP_980
*8470 TAP_981
*8471 TAP_982
*8472 TAP_983
*8473 TAP_984
*8474 TAP_985
*8475 TAP_986
*8476 TAP_987
*8477 TAP_988
*8478 TAP_989
*8479 TAP_990
*8480 TAP_991
*8481 TAP_992
*8482 TAP_993
*8483 TAP_994
*8484 TAP_995
*8485 TAP_996
*8486 TAP_997
*8487 TAP_998
*8488 TAP_999
*8489 _0535_
*8490 _0536_
*8491 _0537_
*8492 _0538_
*8493 _0539_
*8494 _0540_
*8495 _0541_
*8496 _0542_
*8497 _0543_
*8498 _0544_
*8499 _0545_
*8500 _0546_
*8501 _0547_
*8502 _0548_
*8503 _0549_
*8504 _0550_
*8505 _0551_
*8506 _0552_
*8507 _0553_
*8508 _0554_
*8509 _0555_
*8510 _0556_
*8511 _0557_
*8512 _0558_
*8513 _0559_
*8514 _0560_
*8515 _0561_
*8516 _0562_
*8517 _0563_
*8518 _0564_
*8519 _0565_
*8520 _0566_
*8521 _0567_
*8522 _0568_
*8523 _0569_
*8524 _0570_
*8525 _0571_
*8526 _0572_
*8527 _0573_
*8528 _0574_
*8529 _0575_
*8530 _0576_
*8531 _0577_
*8532 _0578_
*8533 _0579_
*8534 _0580_
*8535 _0581_
*8536 _0582_
*8537 _0583_
*8538 _0584_
*8539 _0585_
*8540 _0586_
*8541 _0587_
*8542 _0588_
*8543 _0589_
*8544 _0590_
*8545 _0591_
*8546 _0592_
*8547 _0593_
*8548 _0594_
*8549 _0595_
*8550 _0596_
*8551 _0597_
*8552 _0598_
*8553 _0599_
*8554 _0600_
*8555 _0601_
*8556 _0602_
*8557 _0603_
*8558 _0604_
*8559 _0605_
*8560 _0606_
*8561 _0607_
*8562 _0608_
*8563 _0609_
*8564 _0610_
*8565 _0611_
*8566 _0612_
*8567 _0613_
*8568 _0614_
*8569 _0615_
*8570 _0616_
*8571 _0617_
*8572 _0618_
*8573 _0619_
*8574 _0620_
*8575 _0621_
*8576 _0622_
*8577 _0623_
*8578 _0624_
*8579 _0625_
*8580 _0626_
*8581 _0627_
*8582 _0628_
*8583 _0629_
*8584 _0630_
*8585 _0631_
*8586 _0632_
*8587 _0633_
*8588 _0634_
*8589 _0635_
*8590 _0636_
*8591 _0637_
*8592 _0638_
*8593 _0639_
*8594 _0640_
*8595 _0641_
*8596 _0642_
*8597 _0643_
*8598 _0644_
*8599 _0645_
*8600 _0646_
*8601 _0647_
*8602 _0648_
*8603 _0649_
*8604 _0650_
*8605 _0651_
*8606 _0652_
*8607 _0653_
*8608 _0654_
*8609 _0655_
*8610 _0656_
*8611 _0657_
*8612 _0658_
*8613 _0659_
*8614 _0660_
*8615 _0661_
*8616 _0662_
*8617 _0663_
*8618 _0664_
*8619 _0665_
*8620 _0666_
*8621 _0667_
*8622 _0668_
*8623 _0669_
*8624 _0670_
*8625 _0671_
*8626 _0672_
*8627 _0673_
*8628 _0674_
*8629 _0675_
*8630 _0676_
*8631 _0677_
*8632 _0678_
*8633 _0679_
*8634 _0680_
*8635 _0681_
*8636 _0682_
*8637 _0683_
*8638 _0684_
*8639 _0685_
*8640 _0686_
*8641 _0687_
*8642 _0688_
*8643 _0689_
*8644 _0690_
*8645 _0691_
*8646 _0692_
*8647 _0693_
*8648 _0694_
*8649 _0695_
*8650 _0696_
*8651 _0697_
*8652 _0698_
*8653 _0699_
*8654 _0700_
*8655 _0701_
*8656 _0702_
*8657 _0703_
*8658 _0704_
*8659 _0705_
*8660 _0706_
*8661 _0707_
*8662 _0708_
*8663 _0709_
*8664 _0710_
*8665 _0711_
*8666 _0712_
*8667 _0713_
*8668 _0714_
*8669 _0715_
*8670 _0716_
*8671 _0717_
*8672 _0718_
*8673 _0719_
*8674 _0720_
*8675 _0721_
*8676 _0722_
*8677 _0723_
*8678 _0724_
*8679 _0725_
*8680 _0726_
*8681 _0727_
*8682 _0728_
*8683 _0729_
*8684 _0730_
*8685 _0731_
*8686 _0732_
*8687 _0733_
*8688 _0734_
*8689 _0735_
*8690 _0736_
*8691 _0737_
*8692 _0738_
*8693 _0739_
*8694 _0740_
*8695 _0741_
*8696 _0742_
*8697 _0743_
*8698 _0744_
*8699 _0745_
*8700 _0746_
*8701 _0747_
*8702 _0748_
*8703 _0749_
*8704 _0750_
*8705 _0751_
*8706 _0752_
*8707 _0753_
*8708 _0754_
*8709 _0755_
*8710 _0756_
*8711 _0757_
*8712 _0758_
*8713 _0759_
*8714 _0760_
*8715 _0761_
*8716 _0762_
*8717 _0763_
*8718 _0764_
*8719 _0765_
*8720 _0766_
*8721 _0767_
*8722 _0768_
*8723 _0769_
*8724 _0770_
*8725 _0771_
*8726 _0772_
*8727 _0773_
*8728 _0774_
*8729 _0775_
*8730 _0776_
*8731 _0777_
*8732 _0778_
*8733 _0779_
*8734 _0780_
*8735 _0781_
*8736 _0782_
*8737 _0783_
*8738 _0784_
*8739 _0785_
*8740 _0786_
*8741 _0787_
*8742 _0788_
*8743 _0789_
*8744 _0790_
*8745 _0791_
*8746 _0792_
*8747 _0793_
*8748 _0794_
*8749 _0795_
*8750 _0796_
*8751 _0797_
*8752 _0798_
*8753 _0799_
*8754 _0800_
*8755 _0801_
*8756 _0802_
*8757 _0803_
*8758 _0804_
*8759 _0805_
*8760 _0806_
*8761 _0807_
*8762 _0808_
*8763 _0809_
*8764 _0810_
*8765 _0811_
*8766 _0812_
*8767 _0813_
*8768 _0814_
*8769 _0815_
*8770 _0816_
*8771 _0817_
*8772 _0818_
*8773 _0819_
*8774 _0820_
*8775 _0821_
*8776 _0822_
*8777 _0823_
*8778 _0824_
*8779 _0825_
*8780 _0826_
*8781 _0827_
*8782 _0828_
*8783 _0829_
*8784 _0830_
*8785 _0831_
*8786 _0832_
*8787 _0833_
*8788 _0834_
*8789 _0835_
*8790 _0836_
*8791 _0837_
*8792 _0838_
*8793 _0839_
*8794 _0840_
*8795 _0841_
*8796 _0842_
*8797 _0843_
*8798 _0844_
*8799 _0845_
*8800 _0846_
*8801 _0847_
*8802 _0848_
*8803 _0849_
*8804 _0850_
*8805 _0851_
*8806 _0852_
*8807 _0853_
*8808 _0854_
*8809 _0855_
*8810 _0856_
*8811 _0857_
*8812 _0858_
*8813 _0859_
*8814 _0860_
*8815 _0861_
*8816 _0862_
*8817 _0863_
*8818 _0864_
*8819 _0865_
*8820 _0866_
*8821 _0867_
*8822 _0868_
*8823 _0869_
*8824 _0870_
*8825 _0871_
*8826 _0872_
*8827 _0873_
*8828 _0874_
*8829 _0875_
*8830 _0876_
*8831 _0877_
*8832 _0878_
*8833 _0879_
*8834 _0880_
*8835 _0881_
*8836 _0882_
*8837 _0883_
*8838 _0884_
*8839 _0885_
*8840 _0886_
*8841 _0887_
*8842 _0888_
*8843 _0889_
*8844 _0890_
*8845 _0891_
*8846 _0892_
*8847 _0893_
*8848 _0894_
*8849 _0895_
*8850 _0896_
*8851 _0897_
*8852 _0898_
*8853 _0899_
*8854 _0900_
*8855 _0901_
*8856 _0902_
*8857 _0903_
*8858 _0904_
*8859 _0905_
*8860 _0906_
*8861 _0907_
*8862 _0908_
*8863 _0909_
*8864 _0910_
*8865 _0911_
*8866 _0912_
*8867 _0913_
*8868 _0914_
*8869 _0915_
*8870 _0916_
*8871 _0917_
*8872 _0918_
*8873 _0919_
*8874 _0920_
*8875 _0921_
*8876 _0922_
*8877 _0923_
*8878 _0924_
*8879 _0925_
*8880 _0926_
*8881 _0927_
*8882 _0928_
*8883 _0929_
*8884 _0930_
*8885 _0931_
*8886 _0932_
*8887 _0933_
*8888 _0934_
*8889 _0935_
*8890 _0936_
*8891 _0937_
*8892 _0938_
*8893 _0939_
*8894 _0940_
*8895 _0941_
*8896 _0942_
*8897 _0943_
*8898 _0944_
*8899 _0945_
*8900 _0946_
*8901 _0947_
*8902 _0948_
*8903 _0949_
*8904 _0950_
*8905 _0951_
*8906 _0952_
*8907 _0953_
*8908 _0954_
*8909 _0955_
*8910 _0956_
*8911 _0957_
*8912 _0958_
*8913 _0959_
*8914 _0960_
*8915 _0961_
*8916 _0962_
*8917 _0963_
*8918 _0964_
*8919 _0965_
*8920 _0966_
*8921 _0967_
*8922 _0968_
*8923 _0969_
*8924 _0970_
*8925 _0971_
*8926 _0972_
*8927 _0973_
*8928 _0974_
*8929 _0975_
*8930 _0976_
*8931 _0977_
*8932 _0978_
*8933 _0979_
*8934 _0980_
*8935 _0981_
*8936 _0982_
*8937 _0983_
*8938 _0984_
*8939 _0985_
*8940 _0986_
*8941 _0987_
*8942 _0988_
*8943 _0989_
*8944 _0990_
*8945 _0991_
*8946 _0992_
*8947 _0993_
*8948 _0994_
*8949 _0995_
*8950 _0996_
*8951 _0997_
*8952 _0998_
*8953 _0999_
*8954 _1000_
*8955 _1001_
*8956 _1002_
*8957 _1003_
*8958 _1004_
*8959 _1005_
*8960 _1006_
*8961 _1007_
*8962 _1008_
*8963 _1009_
*8964 _1010_
*8965 _1011_
*8966 _1012_
*8967 _1013_
*8968 _1014_
*8969 _1015_
*8970 _1016_
*8971 _1017_
*8972 _1018_
*8973 _1019_
*8974 _1020_
*8975 _1021_
*8976 _1022_
*8977 _1023_
*8978 _1024_
*8979 _1025_
*8980 _1026_
*8981 _1027_
*8982 _1028_
*8983 _1029_
*8984 _1030_
*8985 _1031_
*8986 _1032_
*8987 _1033_
*8988 _1034_
*8989 _1035_
*8990 _1036_
*8991 _1037_
*8992 _1038_
*8993 _1039_
*8994 _1040_
*8995 _1041_
*8996 _1042_
*8997 _1043_
*8998 _1044_
*8999 _1045_
*9000 _1046_
*9001 _1047_
*9002 _1048_
*9003 _1049_
*9004 _1050_
*9005 _1051_
*9006 _1052_
*9007 _1053_
*9008 _1054_
*9009 _1055_
*9010 _1056_
*9011 _1057_
*9012 _1058_
*9013 _1059_
*9014 _1060_
*9015 _1061_
*9016 _1062_
*9017 _1063_
*9018 _1064_
*9019 _1065_
*9020 _1066_
*9021 _1067_
*9022 _1068_
*9023 _1069_
*9024 _1070_
*9025 _1071_
*9026 _1072_
*9027 _1073_
*9028 _1074_
*9029 _1075_
*9030 _1076_
*9031 _1077_
*9032 _1078_
*9033 _1079_
*9034 _1080_
*9035 _1081_
*9036 _1082_
*9037 _1083_
*9038 _1084_
*9039 _1085_
*9040 _1086_
*9041 _1087_
*9042 _1088_
*9043 _1089_
*9044 _1090_
*9045 _1091_
*9046 _1092_
*9047 _1093_
*9048 _1094_
*9049 _1095_
*9050 _1096_
*9051 _1097_
*9052 _1098_
*9053 _1099_
*9054 _1100_
*9055 _1101_
*9056 _1102_
*9057 _1103_
*9058 _1104_
*9059 _1105_
*9060 _1106_
*9061 _1107_
*9062 _1108_
*9063 _1109_
*9064 _1110_
*9065 _1111_
*9066 _1112_
*9067 _1113_
*9068 _1114_
*9069 _1115_
*9070 _1116_
*9071 _1117_
*9072 _1118_
*9073 _1119_
*9074 _1120_
*9075 _1121_
*9076 _1122_
*9077 _1123_
*9078 _1124_
*9079 _1125_
*9080 _1126_
*9081 _1127_
*9082 _1128_
*9083 _1129_
*9084 _1130_
*9085 _1131_
*9086 _1132_
*9087 _1133_
*9088 _1134_
*9089 _1135_
*9090 _1136_
*9091 _1137_
*9092 _1138_
*9093 _1139_
*9094 _1140_
*9095 _1141_
*9096 _1142_
*9097 _1143_
*9098 _1144_
*9099 _1145_
*9100 _1146_
*9101 _1147_
*9102 _1148_
*9103 _1149_
*9104 _1150_
*9105 _1151_
*9106 _1152_
*9107 _1153_
*9108 _1154_
*9109 _1155_
*9110 _1156_
*9111 _1157_
*9112 _1158_
*9113 _1159_
*9114 _1160_
*9115 _1161_
*9116 _1162_
*9117 _1163_
*9118 _1164_
*9119 _1165_
*9120 _1166_
*9121 _1167_
*9122 _1168_
*9123 _1169_
*9124 _1170_
*9125 _1171_
*9126 _1172_
*9127 _1173_
*9128 _1174_
*9129 _1175_
*9130 _1176_
*9131 _1177_
*9132 _1178_
*9133 _1179_
*9134 _1180_
*9135 _1181_
*9136 _1182_
*9137 _1183_
*9138 _1184_
*9139 _1185_
*9140 _1186_
*9141 _1187_
*9142 _1188_
*9143 _1189_
*9144 _1190_
*9145 _1191_
*9146 _1192_
*9147 _1193_
*9148 _1194_
*9149 _1195_
*9150 _1196_
*9151 _1197_
*9152 _1198_
*9153 _1199_
*9154 _1200_
*9155 _1201_
*9156 _1202_
*9157 _1203_
*9158 _1204_
*9159 _1205_
*9160 _1206_
*9161 _1207_
*9162 _1208_
*9163 _1209_
*9164 _1210_
*9165 _1211_
*9166 _1212_
*9167 _1213_
*9168 _1214_
*9169 _1215_
*9170 _1216_
*9171 _1217_
*9172 _1218_
*9173 _1219_
*9174 _1220_
*9175 _1221_
*9176 _1222_
*9177 _1223_
*9178 clkbuf_0_wb_clk_i
*9179 clkbuf_4_0_0_wb_clk_i
*9180 clkbuf_4_10_0_wb_clk_i
*9181 clkbuf_4_11_0_wb_clk_i
*9182 clkbuf_4_12_0_wb_clk_i
*9183 clkbuf_4_13_0_wb_clk_i
*9184 clkbuf_4_14_0_wb_clk_i
*9185 clkbuf_4_15_0_wb_clk_i
*9186 clkbuf_4_1_0_wb_clk_i
*9187 clkbuf_4_2_0_wb_clk_i
*9188 clkbuf_4_3_0_wb_clk_i
*9189 clkbuf_4_4_0_wb_clk_i
*9190 clkbuf_4_5_0_wb_clk_i
*9191 clkbuf_4_6_0_wb_clk_i
*9192 clkbuf_4_7_0_wb_clk_i
*9193 clkbuf_4_8_0_wb_clk_i
*9194 clkbuf_4_9_0_wb_clk_i
*9195 i2c_master_top_31
*9196 i2c_master_top_32
*9197 i2c_master_top_33
*9198 i2c_master_top_34
*9199 i2c_master_top_35
*9200 i2c_master_top_36
*9201 i2c_master_top_37
*9202 i2c_master_top_38
*9203 i2c_master_top_39
*9204 input1
*9205 input10
*9206 input11
*9207 input12
*9208 input13
*9209 input14
*9210 input15
*9211 input16
*9212 input17
*9213 input18
*9214 input2
*9215 input3
*9216 input4
*9217 input5
*9218 input6
*9219 input7
*9220 input8
*9221 input9
*9222 output19
*9223 output20
*9224 output21
*9225 output22
*9226 output23
*9227 output24
*9228 output25
*9229 output26
*9230 output27
*9231 output28
*9232 output29
*9233 output30

*PORTS
arst_i I
io_oeb[0] O
io_oeb[1] O
io_oeb[2] O
io_oeb[3] O
io_oeb[4] O
io_oeb[5] O
io_oeb[6] O
scl_pad_i I
scl_pad_o O
scl_padoen_o O
sda_pad_i I
sda_pad_o O
sda_padoen_o O
wb_ack_o O
wb_adr_i[0] I
wb_adr_i[1] I
wb_adr_i[2] I
wb_clk_i I
wb_cyc_i I
wb_dat_i[0] I
wb_dat_i[1] I
wb_dat_i[2] I
wb_dat_i[3] I
wb_dat_i[4] I
wb_dat_i[5] I
wb_dat_i[6] I
wb_dat_i[7] I
wb_dat_o[0] O
wb_dat_o[1] O
wb_dat_o[2] O
wb_dat_o[3] O
wb_dat_o[4] O
wb_dat_o[5] O
wb_dat_o[6] O
wb_dat_o[7] O
wb_inta_o O
wb_rst_i I
wb_stb_i I
wb_we_i I

*D_NET *1 0.000735166
*CONN
*P arst_i I
*I *9204:A I *D sky130_fd_sc_hd__clkbuf_16
*CAP
1 arst_i 0.000367583
2 *9204:A 0.000367583
*RES
1 arst_i *9204:A 10.2 
*END

*D_NET *2 0.000929912
*CONN
*P io_oeb[0] O
*I *9195:LO O *D sky130_fd_sc_hd__conb_1
*CAP
1 io_oeb[0] 0.000464956
2 *9195:LO 0.000464956
*RES
1 *9195:LO io_oeb[0] 11.55 
*END

*D_NET *3 0.000929912
*CONN
*P io_oeb[1] O
*I *9196:LO O *D sky130_fd_sc_hd__conb_1
*CAP
1 io_oeb[1] 0.000464956
2 *9196:LO 0.000464956
*RES
1 *9196:LO io_oeb[1] 11.55 
*END

*D_NET *4 0.000929912
*CONN
*P io_oeb[2] O
*I *9197:LO O *D sky130_fd_sc_hd__conb_1
*CAP
1 io_oeb[2] 0.000464956
2 *9197:LO 0.000464956
*RES
1 *9197:LO io_oeb[2] 11.55 
*END

*D_NET *5 0.000929912
*CONN
*P io_oeb[3] O
*I *9198:LO O *D sky130_fd_sc_hd__conb_1
*CAP
1 io_oeb[3] 0.000464956
2 *9198:LO 0.000464956
*RES
1 *9198:LO io_oeb[3] 11.55 
*END

*D_NET *6 0.000929912
*CONN
*P io_oeb[4] O
*I *9199:LO O *D sky130_fd_sc_hd__conb_1
*CAP
1 io_oeb[4] 0.000464956
2 *9199:LO 0.000464956
*RES
1 *9199:LO io_oeb[4] 11.55 
*END

*D_NET *7 0.000929912
*CONN
*P io_oeb[5] O
*I *9200:LO O *D sky130_fd_sc_hd__conb_1
*CAP
1 io_oeb[5] 0.000464956
2 *9200:LO 0.000464956
*RES
1 *9200:LO io_oeb[5] 11.55 
*END

*D_NET *8 0.00102146
*CONN
*P io_oeb[6] O
*I *9201:LO O *D sky130_fd_sc_hd__conb_1
*CAP
1 io_oeb[6] 0.000510731
2 *9201:LO 0.000510731
*RES
1 *9201:LO io_oeb[6] 12.24 
*END

*D_NET *9 0.000843153
*CONN
*P scl_pad_i I
*I *9214:A I *D sky130_fd_sc_hd__buf_1
*CAP
1 scl_pad_i 0.000421577
2 *9214:A 0.000421577
*RES
1 scl_pad_i *9214:A 11.07 
*END

*D_NET *10 0.000929912
*CONN
*P scl_pad_o O
*I *9202:LO O *D sky130_fd_sc_hd__conb_1
*CAP
1 scl_pad_o 0.000464956
2 *9202:LO 0.000464956
*RES
1 *9202:LO scl_pad_o 11.55 
*END

*D_NET *11 0.000940393
*CONN
*P scl_padoen_o O
*I *9222:X O *D sky130_fd_sc_hd__buf_1
*CAP
1 scl_padoen_o 0.000455177
2 *9222:X 0.000455177
3 scl_padoen_o *9222:A 3.00381e-05
*RES
1 *9222:X scl_padoen_o 11.04 
*END

*D_NET *12 0.000791368
*CONN
*P sda_pad_i I
*I *9215:A I *D sky130_fd_sc_hd__buf_1
*CAP
1 sda_pad_i 0.000395684
2 *9215:A 0.000395684
*RES
1 sda_pad_i *9215:A 10.455 
*END

*D_NET *13 0.00102479
*CONN
*P sda_pad_o O
*I *9203:LO O *D sky130_fd_sc_hd__conb_1
*CAP
1 sda_pad_o 0.000512396
2 *9203:LO 0.000512396
*RES
1 *9203:LO sda_pad_o 12.075 
*END

*D_NET *14 0.000707074
*CONN
*P sda_padoen_o O
*I *9223:X O *D sky130_fd_sc_hd__clkbuf_1
*CAP
1 sda_padoen_o 0.000353537
2 *9223:X 0.000353537
*RES
1 *9223:X sda_padoen_o 9.945 
*END

*D_NET *17 0.000952818
*CONN
*P wb_ack_o O
*I *9224:X O *D sky130_fd_sc_hd__buf_1
*CAP
1 wb_ack_o 0.000451137
2 *9224:X 0.000451137
3 wb_ack_o *9224:A 5.05437e-05
*RES
1 *9224:X wb_ack_o 11.04 
*END

*D_NET *18 0.000782819
*CONN
*P wb_adr_i[0] I
*I *9216:A I *D sky130_fd_sc_hd__buf_2
*CAP
1 wb_adr_i[0] 0.00039141
2 *9216:A 0.00039141
*RES
1 wb_adr_i[0] *9216:A 10.455 
*END

*D_NET *19 0.000794412
*CONN
*P wb_adr_i[1] I
*I *9217:A I *D sky130_fd_sc_hd__clkbuf_2
*CAP
1 wb_adr_i[1] 0.00038159
2 *9217:A 0.00038159
3 *9217:A *760:24 3.12319e-05
*RES
1 wb_adr_i[1] *9217:A 10.545 
*END

*D_NET *20 0.000772376
*CONN
*P wb_adr_i[2] I
*I *9218:A I *D sky130_fd_sc_hd__buf_2
*CAP
1 wb_adr_i[2] 0.000386188
2 *9218:A 0.000386188
*RES
1 wb_adr_i[2] *9218:A 10.455 
*END

*D_NET *21 0.0229445
*CONN
*P wb_clk_i I
*I *9178:A I *D sky130_fd_sc_hd__clkbuf_16
*CAP
1 wb_clk_i 0.00926895
2 *9178:A 0.00926895
3 *9178:A *8558:A 0
4 *9178:A *8590:B1 0.000247381
5 *9178:A *8724:A1 7.23533e-05
6 *9178:A *8728:A1 8.97642e-05
7 *9178:A *8734:A1 0.000139245
8 *9178:A *8768:A 0.000141445
9 *9178:A *9079:D 0.00287644
10 *9178:A *189:61 0.000109539
11 *9178:A *269:10 0.000132401
12 *9178:A *427:18 0.000189174
13 *9178:A *571:28 0
14 *9178:A *760:24 0
15 *9178:A *761:16 0.000292529
16 *9178:A *761:28 0.000116318
*RES
1 wb_clk_i *9178:A 41.9297 
*END

*D_NET *22 0.000949623
*CONN
*P wb_cyc_i I
*I *9219:A I *D sky130_fd_sc_hd__clkbuf_1
*CAP
1 wb_cyc_i 0.000474812
2 *9219:A 0.000474812
*RES
1 wb_cyc_i *9219:A 11.655 
*END

*D_NET *23 0.000620816
*CONN
*P wb_dat_i[0] I
*I *9220:A I *D sky130_fd_sc_hd__buf_2
*CAP
1 wb_dat_i[0] 0.000310408
2 *9220:A 0.000310408
*RES
1 wb_dat_i[0] *9220:A 7.91543 
*END

*D_NET *24 0.000582316
*CONN
*P wb_dat_i[1] I
*I *9221:A I *D sky130_fd_sc_hd__clkbuf_2
*CAP
1 wb_dat_i[1] 0.000291158
2 *9221:A 0.000291158
*RES
1 wb_dat_i[1] *9221:A 7.49543 
*END

*D_NET *25 0.000686099
*CONN
*P wb_dat_i[2] I
*I *9205:A I *D sky130_fd_sc_hd__clkbuf_2
*CAP
1 wb_dat_i[2] 0.000343049
2 *9205:A 0.000343049
*RES
1 wb_dat_i[2] *9205:A 5.49443 
*END

*D_NET *26 0.000496417
*CONN
*P wb_dat_i[3] I
*I *9206:A I *D sky130_fd_sc_hd__clkbuf_2
*CAP
1 wb_dat_i[3] 0.000245442
2 *9206:A 0.000245442
3 *9206:A *737:16 5.53249e-06
*RES
1 wb_dat_i[3] *9206:A 5.16003 
*END

*D_NET *27 0.000656764
*CONN
*P wb_dat_i[4] I
*I *9207:A I *D sky130_fd_sc_hd__clkbuf_2
*CAP
1 wb_dat_i[4] 0.000328382
2 *9207:A 0.000328382
*RES
1 wb_dat_i[4] *9207:A 8.00543 
*END

*D_NET *28 0.00052166
*CONN
*P wb_dat_i[5] I
*I *9208:A I *D sky130_fd_sc_hd__buf_2
*CAP
1 wb_dat_i[5] 0.00026083
2 *9208:A 0.00026083
*RES
1 wb_dat_i[5] *9208:A 7.15043 
*END

*D_NET *29 0.000606202
*CONN
*P wb_dat_i[6] I
*I *9209:A I *D sky130_fd_sc_hd__buf_2
*CAP
1 wb_dat_i[6] 0.000303101
2 *9209:A 0.000303101
*RES
1 wb_dat_i[6] *9209:A 6.63177 
*END

*D_NET *30 0.00050845
*CONN
*P wb_dat_i[7] I
*I *9210:A I *D sky130_fd_sc_hd__buf_2
*CAP
1 wb_dat_i[7] 0.000254225
2 *9210:A 0.000254225
*RES
1 wb_dat_i[7] *9210:A 6.89543 
*END

*D_NET *31 0.00053677
*CONN
*P wb_dat_o[0] O
*I *9225:X O *D sky130_fd_sc_hd__buf_1
*CAP
1 wb_dat_o[0] 0.000268385
2 *9225:X 0.000268385
*RES
1 *9225:X wb_dat_o[0] 5.86677 
*END

*D_NET *32 0.000429764
*CONN
*P wb_dat_o[1] O
*I *9226:X O *D sky130_fd_sc_hd__buf_1
*CAP
1 wb_dat_o[1] 0.000214882
2 *9226:X 0.000214882
*RES
1 *9226:X wb_dat_o[1] 4.84677 
*END

*D_NET *33 0.00142976
*CONN
*P wb_dat_o[2] O
*I *9227:X O *D sky130_fd_sc_hd__clkbuf_1
*CAP
1 wb_dat_o[2] 0.000614124
2 *9227:X 0.000614124
3 wb_dat_o[2] *751:10 0.000201508
*RES
1 *9227:X wb_dat_o[2] 9.48463 
*END

*D_NET *34 0.00146654
*CONN
*P wb_dat_o[3] O
*I *9228:X O *D sky130_fd_sc_hd__clkbuf_1
*CAP
1 wb_dat_o[3] 0.000633799
2 *9228:X 0.000633799
3 wb_dat_o[3] *752:10 0.000198939
*RES
1 *9228:X wb_dat_o[3] 8.95963 
*END

*D_NET *35 0.00053677
*CONN
*P wb_dat_o[4] O
*I *9229:X O *D sky130_fd_sc_hd__buf_1
*CAP
1 wb_dat_o[4] 0.000268385
2 *9229:X 0.000268385
*RES
1 *9229:X wb_dat_o[4] 5.86677 
*END

*D_NET *36 0.000416965
*CONN
*P wb_dat_o[5] O
*I *9230:X O *D sky130_fd_sc_hd__buf_1
*CAP
1 wb_dat_o[5] 0.000208483
2 *9230:X 0.000208483
*RES
1 *9230:X wb_dat_o[5] 4.84677 
*END

*D_NET *37 0.000757301
*CONN
*P wb_dat_o[6] O
*I *9231:X O *D sky130_fd_sc_hd__clkbuf_1
*CAP
1 wb_dat_o[6] 0.000360005
2 *9231:X 0.000360005
3 wb_dat_o[6] *755:12 3.72916e-05
*RES
1 *9231:X wb_dat_o[6] 8.20043 
*END

*D_NET *38 0.000426275
*CONN
*P wb_dat_o[7] O
*I *9232:X O *D sky130_fd_sc_hd__buf_1
*CAP
1 wb_dat_o[7] 0.000213137
2 *9232:X 0.000213137
*RES
1 *9232:X wb_dat_o[7] 4.84677 
*END

*D_NET *39 0.000802768
*CONN
*P wb_inta_o O
*I *9233:X O *D sky130_fd_sc_hd__clkbuf_1
*CAP
1 wb_inta_o 0.000401384
2 *9233:X 0.000401384
*RES
1 *9233:X wb_inta_o 10.35 
*END

*D_NET *40 0.000771776
*CONN
*P wb_rst_i I
*I *9211:A I *D sky130_fd_sc_hd__clkbuf_4
*CAP
1 wb_rst_i 0.000385888
2 *9211:A 0.000385888
*RES
1 wb_rst_i *9211:A 10.44 
*END

*D_NET *41 0.000993466
*CONN
*P wb_stb_i I
*I *9212:A I *D sky130_fd_sc_hd__clkbuf_1
*CAP
1 wb_stb_i 0.000478087
2 *9212:A 0.000478087
3 *9212:A *8736:B 3.72916e-05
*RES
1 wb_stb_i *9212:A 12 
*END

*D_NET *42 0.000838363
*CONN
*P wb_we_i I
*I *9213:A I *D sky130_fd_sc_hd__buf_2
*CAP
1 wb_we_i 0.000419182
2 *9213:A 0.000419182
*RES
1 wb_we_i *9213:A 10.86 
*END

*D_NET *43 0.00097537
*CONN
*I *9042:D I *D sky130_fd_sc_hd__dfrtp_1
*I *8559:X O *D sky130_fd_sc_hd__o21a_1
*CAP
1 *9042:D 0.000205541
2 *8559:X 0.000205541
3 *9042:D *8559:A1 0.000252282
4 *9042:D *9134:RESET_B 5.97222e-05
5 *9042:D *717:67 0
6 *9042:D *742:73 0.000252282
*RES
1 *8559:X *9042:D 11.955 
*END

*D_NET *44 0.000326449
*CONN
*I *9045:D I *D sky130_fd_sc_hd__dfrtp_1
*I *8552:X O *D sky130_fd_sc_hd__o31a_1
*CAP
1 *9045:D 5.32829e-05
2 *8552:X 5.32829e-05
3 *9045:D *9098:CLK 2.75145e-05
4 *9045:D *237:10 0.000116165
5 *9045:D *239:20 4.61658e-05
6 *9045:D *735:258 3.00381e-05
*RES
1 *8552:X *9045:D 9.03 
*END

*D_NET *45 0.000962733
*CONN
*I *9043:D I *D sky130_fd_sc_hd__dfrtp_1
*I *8556:X O *D sky130_fd_sc_hd__clkbuf_1
*CAP
1 *9043:D 0.000312925
2 *8556:X 0.000312925
3 *9043:D *8554:A2 0
4 *9043:D *8556:A 0.000251595
5 *9043:D *9043:CLK 8.52883e-05
*RES
1 *8556:X *9043:D 12.9 
*END

*D_NET *46 0.000752078
*CONN
*I *9044:D I *D sky130_fd_sc_hd__dfrtp_1
*I *8554:X O *D sky130_fd_sc_hd__o21a_1
*CAP
1 *9044:D 0.000268938
2 *8554:X 0.000268938
3 *9044:D *8554:B1 4.82919e-05
4 *9044:D *239:20 4.82863e-05
5 *9044:D *239:36 4.06436e-05
6 *9044:D *717:53 7.69801e-05
*RES
1 *8554:X *9044:D 7.235 
*END

*D_NET *47 0.00905948
*CONN
*I *9087:D I *D sky130_fd_sc_hd__dfxtp_2
*I *8737:X O *D sky130_fd_sc_hd__buf_1
*CAP
1 *9087:D 0.00018894
2 *8737:X 0
3 *47:8 0.00452974
4 *47:6 0.0043408
*RES
1 *8737:X *47:6 3.6 
2 *47:6 *47:8 72.78 
3 *47:8 *9087:D 6.51 
*END

*D_NET *48 0.000601078
*CONN
*I *9041:D I *D sky130_fd_sc_hd__dfrtp_1
*I *8548:X O *D sky130_fd_sc_hd__clkbuf_1
*CAP
1 *9041:D 0.000300539
2 *8548:X 0.000300539
*RES
1 *8548:X *9041:D 11.505 
*END

*D_NET *49 0.000527564
*CONN
*I *9092:D I *D sky130_fd_sc_hd__dfstp_2
*I *8525:X O *D sky130_fd_sc_hd__a221o_1
*CAP
1 *9092:D 9.72016e-05
2 *8525:X 9.72016e-05
3 *9092:D *8518:A1 7.55391e-05
4 *9092:D *8677:A 2.75145e-05
5 *9092:D *9092:CLK 4.66108e-05
6 *9092:D *190:26 4.82863e-05
7 *9092:D *671:28 0.00013521
*RES
1 *8525:X *9092:D 9.735 
*END

*D_NET *50 0.000501037
*CONN
*I *9093:D I *D sky130_fd_sc_hd__dfrtp_4
*I *8504:X O *D sky130_fd_sc_hd__a21o_1
*CAP
1 *9093:D 0.000172186
2 *8504:X 0.000172186
3 *9093:D *8522:A2 4.05358e-05
4 *9093:D *8522:B1 2.67022e-05
5 *9093:D *9093:CLK 6.57549e-05
6 *9093:D *216:22 2.36716e-05
*RES
1 *8504:X *9093:D 9.82875 
*END

*D_NET *51 0.000633003
*CONN
*I *9094:D I *D sky130_fd_sc_hd__dfrtp_4
*I *8545:X O *D sky130_fd_sc_hd__o21a_1
*CAP
1 *9094:D 0.000316501
2 *8545:X 0.000316501
3 *9094:D *8544:A_N 0
4 *9094:D *763:10 0
*RES
1 *8545:X *9094:D 10.95 
*END

*D_NET *52 0.00102637
*CONN
*I *9095:D I *D sky130_fd_sc_hd__dfrtp_2
*I *8542:X O *D sky130_fd_sc_hd__a21o_1
*CAP
1 *9095:D 0.000359266
2 *8542:X 0.000359266
3 *9095:D *8541:A1 0.000120186
4 *9095:D *8541:A2 2.75229e-05
5 *9095:D *8541:B1 4.82919e-05
6 *9095:D *9088:D 0
7 *9095:D *9096:D 2.67022e-05
8 *9095:D *708:104 7.35729e-05
9 *9095:D *735:155 0
10 *9095:D *735:159 0
11 *9095:D *735:163 1.1561e-05
*RES
1 *8542:X *9095:D 13.665 
*END

*D_NET *53 0.000691336
*CONN
*I *9096:D I *D sky130_fd_sc_hd__dfrtp_4
*I *8541:X O *D sky130_fd_sc_hd__a21o_1
*CAP
1 *9096:D 0.000286815
2 *8541:X 0.000286815
3 *9096:D *9088:D 7.23602e-05
4 *9096:D *9096:CLK 1.8644e-05
5 *9095:D *9096:D 2.67022e-05
*RES
1 *8541:X *9096:D 10.95 
*END

*D_NET *54 0.000676093
*CONN
*I *9097:D I *D sky130_fd_sc_hd__dfrtp_1
*I *8498:X O *D sky130_fd_sc_hd__a32o_1
*CAP
1 *9097:D 0.000186111
2 *8498:X 0.000186111
3 *9097:D *8534:C1 0
4 *9097:D *9097:RESET_B 0.000124895
5 *9097:D *193:20 7.60965e-05
6 *9097:D *196:33 7.10578e-05
7 *9097:D *742:10 3.18219e-05
*RES
1 *8498:X *9097:D 10.605 
*END

*D_NET *55 0.00132378
*CONN
*I *9088:D I *D sky130_fd_sc_hd__dfrtp_1
*I *8540:X O *D sky130_fd_sc_hd__a21o_1
*CAP
1 *9088:D 0.000554397
2 *8540:X 0.000554397
3 *9088:D *8541:B1 0
4 *9088:D *9088:CLK 7.89689e-05
5 *9088:D *9096:CLK 6.36578e-05
6 *9088:D *735:163 0
7 *9088:D *763:10 0
8 *9095:D *9088:D 0
9 *9096:D *9088:D 7.23602e-05
*RES
1 *8540:X *9088:D 16.44 
*END

*D_NET *56 0.000943045
*CONN
*I *9089:D I *D sky130_fd_sc_hd__dfrtp_1
*I *8534:X O *D sky130_fd_sc_hd__a311o_1
*CAP
1 *9089:D 0.00029096
2 *8534:X 0.00029096
3 *9089:D *8535:B2 7.89767e-05
4 *9089:D *9088:RESET_B 0.000137571
5 *9089:D *9089:CLK 0.000144577
6 *9089:D *708:98 0
7 *9089:D *735:148 0
*RES
1 *8534:X *9089:D 12.3337 
*END

*D_NET *57 0.000652692
*CONN
*I *9090:D I *D sky130_fd_sc_hd__dfrtp_1
*I *8526:X O *D sky130_fd_sc_hd__a31o_1
*CAP
1 *9090:D 0.000191141
2 *8526:X 0.000191141
3 *9090:D *8522:B1 4.11198e-05
4 *9090:D *9093:CLK 0.000136877
5 *9090:D *9093:RESET_B 0
6 *9090:D *216:22 9.24127e-05
*RES
1 *8526:X *9090:D 11.265 
*END

*D_NET *58 0.000888708
*CONN
*I *9091:D I *D sky130_fd_sc_hd__dfrtp_1
*I *8522:X O *D sky130_fd_sc_hd__a31o_1
*CAP
1 *9091:D 0.000272201
2 *8522:X 0.000272201
3 *9091:D *8821:B 0.000175366
4 *9091:D *621:12 0
5 *9091:D *708:64 0.000124895
6 *9091:D *735:125 4.40446e-05
*RES
1 *8522:X *9091:D 12.645 
*END

*D_NET *59 0.0168478
*CONN
*I *8860:S I *D sky130_fd_sc_hd__mux2_1
*I *8856:B1 I *D sky130_fd_sc_hd__a211o_1
*I *8881:B1 I *D sky130_fd_sc_hd__a21oi_1
*I *8890:A1 I *D sky130_fd_sc_hd__o31a_1
*I *8892:A2 I *D sky130_fd_sc_hd__a21o_1
*I *8841:C1 I *D sky130_fd_sc_hd__a211o_1
*I *8837:B1 I *D sky130_fd_sc_hd__a21oi_1
*I *8838:A2 I *D sky130_fd_sc_hd__a21o_1
*I *9165:D I *D sky130_fd_sc_hd__dfstp_2
*I *8849:C1 I *D sky130_fd_sc_hd__a211o_1
*I *8515:X O *D sky130_fd_sc_hd__clkbuf_4
*CAP
1 *8860:S 0.000726619
2 *8856:B1 1.21724e-05
3 *8881:B1 0.000581814
4 *8890:A1 8.2296e-05
5 *8892:A2 0.000116635
6 *8841:C1 0.000117936
7 *8837:B1 0
8 *8838:A2 0
9 *9165:D 0.000592647
10 *8849:C1 0.000232966
11 *8515:X 0
12 *59:102 0.000722332
13 *59:91 0.000656431
14 *59:74 0.000668303
15 *59:47 0.000671626
16 *59:43 0.000219817
17 *59:39 0.00125745
18 *59:18 0.00145548
19 *59:16 0.000283224
20 *59:6 0.00082297
21 *8841:C1 *8836:B 3.26889e-05
22 *8841:C1 *8837:A2 4.87466e-05
23 *8841:C1 *8841:B1 7.5883e-05
24 *8841:C1 *8842:A1 8.49205e-05
25 *8841:C1 *8842:B1 0.000122337
26 *8841:C1 *461:18 2.75145e-05
27 *8841:C1 *463:90 9.8228e-05
28 *8849:C1 *8507:A 8.65905e-05
29 *8849:C1 *8507:B 4.9968e-05
30 *8849:C1 *8849:B1 3.26889e-05
31 *8849:C1 *8852:A_N 3.54536e-05
32 *8849:C1 *8857:A1 7.66579e-05
33 *8849:C1 *9081:CLK 0
34 *8849:C1 *464:40 5.34033e-05
35 *8849:C1 *464:55 0.000285574
36 *8849:C1 *464:70 4.44927e-05
37 *8849:C1 *631:23 7.23533e-05
38 *8856:B1 *8856:A2 4.00541e-06
39 *8856:B1 *8856:C1 9.53428e-06
40 *8860:S *8860:A0 7.23602e-05
41 *8860:S *8860:A1 4.17992e-05
42 *8860:S *8863:B1 0
43 *8860:S *8867:A1 3.79555e-05
44 *8860:S *8872:B 0.000328774
45 *8860:S *9052:D 0.000473021
46 *8860:S *9054:D 0.000116158
47 *8860:S *9054:RESET_B 3.56242e-05
48 *8860:S *205:12 1.73592e-05
49 *8860:S *636:16 0
50 *8860:S *636:42 0
51 *8860:S *735:1416 0
52 *8860:S *735:1452 0
53 *8881:B1 *8846:A1 0
54 *8881:B1 *8884:A1 0
55 *8881:B1 *8886:B2 0.000180793
56 *8881:B1 *8890:A2 3.09233e-05
57 *8881:B1 *712:25 0.000140696
58 *8890:A1 *8890:A2 0.0001249
59 *8892:A2 *8892:B1 0.000271308
60 *9165:D *8660:A 0.000102411
61 *9165:D *8662:A 0
62 *9165:D *8741:A2 8.05681e-05
63 *9165:D *8838:A1 5.83121e-06
64 *9165:D *8838:B1 4.66108e-05
65 *9165:D *9008:A1 0.000850869
66 *9165:D *9169:D 4.75576e-05
67 *9165:D *234:135 0
68 *9165:D *237:71 0
69 *9165:D *721:20 0.000153139
70 *9165:D *721:57 0.00021634
71 *9165:D *735:1266 5.20968e-05
72 *9165:D *735:1279 0.000127508
73 *59:16 *8853:C 0.000140113
74 *59:16 *8854:A1 0
75 *59:16 *8856:C1 0.000122119
76 *59:16 *211:53 0.000111257
77 *59:16 *735:1416 0
78 *59:18 *8845:C 1.19928e-05
79 *59:18 *8856:A1 4.66108e-05
80 *59:18 *8856:A2 0.000140145
81 *59:18 *211:53 0.000122331
82 *59:39 *8835:A 8.49205e-05
83 *59:39 *8835:B 9.80032e-06
84 *59:39 *8837:A1 3.83041e-05
85 *59:39 *8845:C 0.000121464
86 *59:39 *623:21 0.00042453
87 *59:39 *623:38 0.000272978
88 *59:39 *623:81 0.000100738
89 *59:43 *8835:A 0
90 *59:43 *8837:A1 8.57024e-05
91 *59:47 *8835:B 0
92 *59:47 *8838:B1 6.92319e-05
93 *59:74 *8837:A2 7.06865e-05
94 *59:74 *8850:A1 0
95 *59:74 *8850:A2 5.83373e-05
96 *59:91 *8850:A1 0
97 *59:91 *8850:A2 4.13171e-05
98 *59:91 *8890:A2 0.000314445
99 *59:91 *9047:CLK 0
100 *59:91 *9060:RESET_B 2.03321e-05
101 *59:91 *9061:RESET_B 0
102 *59:91 *463:90 0
103 *59:91 *712:25 8.98913e-05
104 *59:91 *712:27 0.000117428
105 *59:102 *8890:A2 0.00015829
106 *59:102 *712:25 5.84902e-05
*RES
1 *8515:X *59:6 3.6 
2 *59:6 *59:16 5.255 
3 *59:16 *59:18 3.555 
4 *59:18 *8849:C1 11.735 
5 *59:18 *59:39 13.92 
6 *59:39 *59:43 1.845 
7 *59:43 *59:47 1.5 
8 *59:47 *9165:D 22.475 
9 *59:47 *8838:A2 1.6 
10 *59:43 *8837:B1 1.6 
11 *59:39 *59:74 3.38 
12 *59:74 *8841:C1 7.635 
13 *59:74 *59:91 10.56 
14 *59:91 *8892:A2 6.12 
15 *59:91 *59:102 1.89 
16 *59:102 *8890:A1 5.085 
17 *59:102 *8881:B1 13.845 
18 *59:16 *8856:B1 1.96 
19 *59:6 *8860:S 18.48 
*END

*D_NET *60 0.000638643
*CONN
*I *9177:D I *D sky130_fd_sc_hd__dfrtp_4
*I *8677:X O *D sky130_fd_sc_hd__clkbuf_1
*CAP
1 *9177:D 0.00011474
2 *8677:X 0.00011474
3 *9177:D *8677:A 0.000108478
4 *9177:D *190:26 3.00381e-05
5 *9177:D *581:57 0.000270647
*RES
1 *8677:X *9177:D 10.815 
*END

*D_NET *61 0.00164318
*CONN
*I *9176:D I *D sky130_fd_sc_hd__dfrtp_1
*I *8672:X O *D sky130_fd_sc_hd__clkbuf_1
*CAP
1 *9176:D 0.000333608
2 *8672:X 0.000333608
3 *9176:D *8526:A1 0
4 *9176:D *8807:A 0.000118527
5 *9176:D *8816:B 5.92767e-05
6 *9176:D *9176:CLK 6.92504e-05
7 *9176:D *195:39 4.61744e-05
8 *9176:D *446:18 0.000361586
9 *9176:D *449:20 0
10 *9176:D *680:23 0.000103192
11 *9176:D *707:157 0.000217958
*RES
1 *8672:X *9176:D 17.19 
*END

*D_NET *62 0.00144389
*CONN
*I *9174:D I *D sky130_fd_sc_hd__dfrtp_1
*I *8675:X O *D sky130_fd_sc_hd__o21a_1
*CAP
1 *9174:D 0.000554935
2 *8675:X 0.000554935
3 *9174:D *579:52 0.000300109
4 *9174:D *700:8 3.39151e-05
5 *9174:D *716:24 0
6 *9174:D *742:20 0
*RES
1 *8675:X *9174:D 19.72 
*END

*D_NET *63 0.000624192
*CONN
*I *9175:D I *D sky130_fd_sc_hd__dfrtp_1
*I *8674:X O *D sky130_fd_sc_hd__o2111a_1
*CAP
1 *9175:D 9.48245e-05
2 *8674:X 9.48245e-05
3 *9175:D *8673:B 0.00011852
4 *9175:D *9175:RESET_B 0.000267584
5 *9175:D *684:16 4.84393e-05
6 *9175:D *763:10 0
*RES
1 *8674:X *9175:D 10.365 
*END

*D_NET *64 0.000569568
*CONN
*I *9134:D I *D sky130_fd_sc_hd__dfrtp_4
*I *8592:X O *D sky130_fd_sc_hd__o21a_1
*CAP
1 *9134:D 0.000179919
2 *8592:X 0.000179919
3 *9134:D *9001:A2 0
4 *9134:D *9001:C1 0
5 *9134:D *9134:RESET_B 6.70694e-05
6 *9134:D *581:23 0
7 *9134:D *620:96 0.000142661
*RES
1 *8592:X *9134:D 11.01 
*END

*D_NET *65 0.000961111
*CONN
*I *9136:D I *D sky130_fd_sc_hd__dfrtp_1
*I *8594:X O *D sky130_fd_sc_hd__o21a_1
*CAP
1 *9136:D 0.000259594
2 *8594:X 0.000259594
3 *9136:D *8594:A1 3.00381e-05
4 *9136:D *8594:B1 0.000337323
5 *9136:D *9136:RESET_B 4.70393e-05
6 *9136:D *720:46 2.75229e-05
*RES
1 *8594:X *9136:D 9.17 
*END

*D_NET *66 0.000333726
*CONN
*I *9161:D I *D sky130_fd_sc_hd__dfrtp_1
*I *8664:X O *D sky130_fd_sc_hd__clkbuf_1
*CAP
1 *9161:D 0.000148217
2 *8664:X 0.000148217
3 *9161:D *8664:A 3.72916e-05
4 *9161:D *9085:D 0
5 *9161:D *9161:RESET_B 0
*RES
1 *8664:X *9161:D 9.375 
*END

*D_NET *67 0.00152394
*CONN
*I *9162:D I *D sky130_fd_sc_hd__dfrtp_1
*I *8666:X O *D sky130_fd_sc_hd__clkbuf_1
*CAP
1 *9162:D 0.000473769
2 *8666:X 0.000473769
3 *9162:D *8666:A 0.000352156
4 *9162:D *9160:D 0
5 *9162:D *234:102 0.000175832
6 *9162:D *606:52 1.83756e-05
7 *9162:D *608:33 3.00381e-05
*RES
1 *8666:X *9162:D 15.225 
*END

*D_NET *68 0.000241291
*CONN
*I *9163:D I *D sky130_fd_sc_hd__dfrtp_1
*I *8660:X O *D sky130_fd_sc_hd__clkbuf_1
*CAP
1 *9163:D 0.000107687
2 *8660:X 0.000107687
3 *9163:D *8659:B 0
4 *9163:D *9132:SET_B 8.53113e-06
5 *9163:D *747:34 1.7386e-05
*RES
1 *8660:X *9163:D 8.775 
*END

*D_NET *69 0.000578838
*CONN
*I *9164:D I *D sky130_fd_sc_hd__dfrtp_1
*I *8662:X O *D sky130_fd_sc_hd__clkbuf_1
*CAP
1 *9164:D 0.000161004
2 *8662:X 0.000161004
3 *9164:D *8662:A 6.28843e-05
4 *9164:D *8741:A2 0.00013106
5 *9164:D *234:135 6.28843e-05
*RES
1 *8662:X *9164:D 10.755 
*END

*D_NET *70 0.00650042
*CONN
*I *9122:D I *D sky130_fd_sc_hd__dfrtp_2
*I *8588:Y O *D sky130_fd_sc_hd__a31oi_1
*CAP
1 *9122:D 0.00285177
2 *8588:Y 0.00285177
3 *9122:D *8588:A2 3.82323e-06
4 *9122:D *8588:A3 0.000161003
5 *9122:D *8781:A1 8.22234e-06
6 *9122:D *8781:B1 4.48266e-05
7 *9122:D *8786:A3 0.000237709
8 *9122:D *9122:CLK 3.07686e-05
9 *9122:D *9122:RESET_B 5.23362e-05
10 *9122:D *621:12 0.000258181
*RES
1 *8588:Y *9122:D 42.2588 
*END

*D_NET *71 0.000647186
*CONN
*I *9141:D I *D sky130_fd_sc_hd__dfstp_1
*I *8745:X O *D sky130_fd_sc_hd__clkbuf_1
*CAP
1 *9141:D 0.000228892
2 *8745:X 0.000228892
3 *9141:D *8745:A 8.84186e-05
4 *9141:D *9135:CLK 7.43256e-05
5 *9141:D *9135:D 2.66586e-05
6 *9141:D *234:22 0
7 *9141:D *666:12 0
*RES
1 *8745:X *9141:D 10.755 
*END

*D_NET *72 0.001762
*CONN
*I *9142:D I *D sky130_fd_sc_hd__dfstp_1
*I *8743:X O *D sky130_fd_sc_hd__clkbuf_1
*CAP
1 *9142:D 0.000508081
2 *8743:X 0.000508081
3 *9142:D *8596:B_N 0
4 *9142:D *8598:A_N 0.000254408
5 *9142:D *9046:CLK 6.52265e-05
6 *9142:D *275:121 0.0004262
7 *9142:D *666:12 0
8 *9142:D *666:14 0
9 *9142:D *707:132 0
*RES
1 *8743:X *9142:D 15.135 
*END

*D_NET *73 0.000684997
*CONN
*I *9147:D I *D sky130_fd_sc_hd__dfrtp_4
*I *8610:X O *D sky130_fd_sc_hd__o311a_1
*CAP
1 *9147:D 0.000218579
2 *8610:X 0.000218579
3 *9147:D *8610:A2 9.62187e-05
4 *9147:D *286:10 0
5 *9147:D *608:35 0
6 *9147:D *612:42 7.48995e-05
7 *9147:D *714:84 7.00889e-06
8 *9147:D *714:95 6.97118e-05
*RES
1 *8610:X *9147:D 11.505 
*END

*D_NET *74 0.00144099
*CONN
*I *9157:D I *D sky130_fd_sc_hd__dfrtp_1
*I *8647:X O *D sky130_fd_sc_hd__o221a_1
*CAP
1 *9157:D 0.000457832
2 *8647:X 0.000457832
3 *9157:D *8652:C 0.000312964
4 *9157:D *9156:CLK 5.23362e-05
5 *9157:D *9156:D 2.88519e-05
6 *9157:D *9157:RESET_B 5.23362e-05
7 *9157:D *293:59 0
8 *9157:D *652:52 8.53113e-06
9 *9157:D *714:145 8.53856e-06
10 *9157:D *714:158 2.49909e-05
11 *9157:D *735:1590 3.67779e-05
12 *9157:D *745:61 0
*RES
1 *8647:X *9157:D 13.9537 
*END

*D_NET *75 0.00105877
*CONN
*I *9158:D I *D sky130_fd_sc_hd__dfrtp_1
*I *8650:X O *D sky130_fd_sc_hd__o311a_1
*CAP
1 *9158:D 0.000390772
2 *8650:X 0.000390772
3 *9158:D *8658:A 0
4 *9158:D *9158:RESET_B 0
5 *9158:D *605:66 0.000277223
*RES
1 *8650:X *9158:D 12.885 
*END

*D_NET *76 0.00133879
*CONN
*I *9159:D I *D sky130_fd_sc_hd__dfrtp_1
*I *8653:X O *D sky130_fd_sc_hd__o221a_1
*CAP
1 *9159:D 0.000455352
2 *8653:X 0.000455352
3 *9159:D *9159:RESET_B 7.94826e-05
4 *9159:D *652:58 9.17261e-05
5 *9159:D *714:116 4.61256e-05
6 *9159:D *714:118 0.000210748
*RES
1 *8653:X *9159:D 13.965 
*END

*D_NET *77 0.00116534
*CONN
*I *9160:D I *D sky130_fd_sc_hd__dfrtp_2
*I *8658:X O *D sky130_fd_sc_hd__clkbuf_1
*CAP
1 *9160:D 0.000557211
2 *8658:X 0.000557211
3 *9160:D *234:102 0
4 *9160:D *609:58 5.09218e-05
5 *9162:D *9160:D 0
*RES
1 *8658:X *9160:D 14.685 
*END

*D_NET *78 0.00150929
*CONN
*I *9148:D I *D sky130_fd_sc_hd__dfrtp_4
*I *8617:X O *D sky130_fd_sc_hd__o221a_1
*CAP
1 *9148:D 0.000265859
2 *8617:X 0.000265859
3 *9148:D *8622:C1 0.00024373
4 *9148:D *8883:B2 8.05768e-05
5 *9148:D *9148:RESET_B 4.82919e-05
6 *9148:D *614:56 8.23457e-05
7 *9148:D *714:36 6.97034e-05
8 *9148:D *735:1594 0.000246105
9 *9148:D *735:1596 0.000206824
*RES
1 *8617:X *9148:D 14.34 
*END

*D_NET *79 0.000830749
*CONN
*I *9149:D I *D sky130_fd_sc_hd__dfrtp_2
*I *8619:X O *D sky130_fd_sc_hd__o221a_1
*CAP
1 *9149:D 0.000119038
2 *8619:X 0.000119038
3 *9149:D *8625:A1 1.83847e-05
4 *9149:D *8626:A2 0.00015997
5 *9149:D *8633:B1 2.42236e-05
6 *9149:D *8636:B1 0.000119898
7 *9149:D *714:51 0.000270196
*RES
1 *8619:X *9149:D 11.07 
*END

*D_NET *80 0.00126687
*CONN
*I *9150:D I *D sky130_fd_sc_hd__dfrtp_2
*I *8622:X O *D sky130_fd_sc_hd__o221a_1
*CAP
1 *9150:D 0.000301994
2 *8622:X 0.000301994
3 *9150:D *8625:A2 9.07847e-05
4 *9150:D *8626:B2 7.49327e-05
5 *9150:D *8860:A1 0.000194835
6 *9150:D *8875:A1 0.000178321
7 *9150:D *292:146 0.000124007
*RES
1 *8622:X *9150:D 13.245 
*END

*D_NET *81 0.000532131
*CONN
*I *9151:D I *D sky130_fd_sc_hd__dfrtp_4
*I *8626:X O *D sky130_fd_sc_hd__o221a_1
*CAP
1 *9151:D 0.000110086
2 *8626:X 0.000110086
3 *9151:D *8626:A1 0.000265276
4 *9151:D *8860:A1 4.66826e-05
*RES
1 *8626:X *9151:D 5.72 
*END

*D_NET *82 0.000947175
*CONN
*I *9152:D I *D sky130_fd_sc_hd__dfrtp_1
*I *8630:X O *D sky130_fd_sc_hd__o311a_1
*CAP
1 *9152:D 0.000125841
2 *8630:X 0.000125841
3 *9152:D *8614:A 4.25379e-05
4 *9152:D *8630:A3 2.45351e-05
5 *9152:D *8630:B1 4.66108e-05
6 *9152:D *8630:C1 8.18542e-05
7 *9152:D *9152:CLK 4.82919e-05
8 *9152:D *291:10 0.000451664
*RES
1 *8630:X *9152:D 7.445 
*END

*D_NET *83 0.000779298
*CONN
*I *9153:D I *D sky130_fd_sc_hd__dfrtp_1
*I *8633:X O *D sky130_fd_sc_hd__o221a_1
*CAP
1 *9153:D 0.000243214
2 *8633:X 0.000243214
3 *9153:D *8627:C 8.49205e-05
4 *9153:D *8633:A2 3.45588e-05
5 *9153:D *8635:A1 9.03291e-05
6 *9153:D *8635:A3 7.67415e-06
7 *9153:D *8635:B1 3.00381e-05
8 *9153:D *297:21 4.535e-05
*RES
1 *8633:X *9153:D 10.845 
*END

*D_NET *84 0.000701185
*CONN
*I *9154:D I *D sky130_fd_sc_hd__dfrtp_4
*I *8636:X O *D sky130_fd_sc_hd__o221a_1
*CAP
1 *9154:D 0.000122844
2 *8636:X 0.000122844
3 *9154:D *8640:A1 0.000120364
4 *9154:D *8640:B2 0.000174699
5 *9154:D *9083:CLK 0.000129905
6 *9154:D *714:171 3.05295e-05
*RES
1 *8636:X *9154:D 11.58 
*END

*D_NET *85 0.000311279
*CONN
*I *9155:D I *D sky130_fd_sc_hd__dfrtp_2
*I *8640:X O *D sky130_fd_sc_hd__o221a_1
*CAP
1 *9155:D 7.33028e-05
2 *8640:X 7.33028e-05
3 *9155:D *663:16 4.66108e-05
4 *9155:D *714:171 0.000118063
*RES
1 *8640:X *9155:D 8.775 
*END

*D_NET *86 0.00136903
*CONN
*I *9156:D I *D sky130_fd_sc_hd__dfrtp_1
*I *8642:X O *D sky130_fd_sc_hd__o221a_1
*CAP
1 *9156:D 0.000442488
2 *8642:X 0.000442488
3 *9156:D *8605:A 4.43871e-06
4 *9156:D *8642:A2 8.65961e-05
5 *9156:D *8647:A1 7.26475e-06
6 *9156:D *8647:A2 0.00016041
7 *9156:D *8647:B1 1.71416e-05
8 *9156:D *8883:B2 6.62361e-05
9 *9156:D *9156:RESET_B 2.47313e-05
10 *9156:D *9157:RESET_B 8.5225e-05
11 *9156:D *293:70 3.16057e-06
12 *9156:D *652:10 0
13 *9156:D *652:52 0
14 *9156:D *735:1590 0
15 *9157:D *9156:D 2.88519e-05
*RES
1 *8642:X *9156:D 14.7338 
*END

*D_NET *87 0.00180363
*CONN
*I *9139:D I *D sky130_fd_sc_hd__dfstp_1
*I *8749:X O *D sky130_fd_sc_hd__a211o_1
*CAP
1 *9139:D 0.000444569
2 *8749:X 0.000444569
3 *9139:D *9139:CLK 1.83847e-05
4 *9139:D *9145:D 0.000111547
5 *9139:D *9146:SET_B 0
6 *9139:D *9184:A 0.000275548
7 *9139:D *234:22 0.000478974
8 *9139:D *292:49 0
9 *9139:D *292:74 0
10 *9139:D *574:18 3.00381e-05
*RES
1 *8749:X *9139:D 15.885 
*END

*D_NET *88 0.00266862
*CONN
*I *9140:D I *D sky130_fd_sc_hd__dfstp_1
*I *8747:X O *D sky130_fd_sc_hd__a211o_1
*CAP
1 *9140:D 0.000804431
2 *8747:X 0.000804431
3 *9140:D *8512:A2 0.000113797
4 *9140:D *9013:A1 1.03323e-05
5 *9140:D *9061:CLK 5.85626e-05
6 *9140:D *208:88 0.00013521
7 *9140:D *234:22 2.96553e-05
8 *9140:D *237:71 0
9 *9140:D *610:21 0.000250609
10 *9140:D *665:10 0.000266405
11 *9140:D *707:31 4.9253e-06
12 *9140:D *711:16 0.000190261
13 *9140:D *711:20 0
*RES
1 *8747:X *9140:D 25.135 
*END

*D_NET *89 0.000684175
*CONN
*I *9169:D I *D sky130_fd_sc_hd__dfrtp_1
*I *8741:X O *D sky130_fd_sc_hd__o21ba_1
*CAP
1 *9169:D 0.000208598
2 *8741:X 0.000208598
3 *9169:D *8741:A2 0.000118063
4 *9169:D *8741:B1_N 5.30673e-05
5 *9169:D *9169:CLK 4.82919e-05
6 *9165:D *9169:D 4.75576e-05
*RES
1 *8741:X *9169:D 10.605 
*END

*D_NET *90 0.00163781
*CONN
*I *9137:D I *D sky130_fd_sc_hd__dfrtp_1
*I *8599:X O *D sky130_fd_sc_hd__clkbuf_1
*CAP
1 *9137:D 0.000572483
2 *8599:X 0.000572483
3 *9137:D *8591:A_N 0
4 *9137:D *8594:A2 0.000154699
5 *9137:D *8598:A_N 3.64998e-06
6 *9137:D *9137:RESET_B 7.53146e-05
7 *9137:D *237:71 1.9415e-05
8 *9137:D *720:32 1.07797e-05
9 *9137:D *720:36 0.000206914
10 *9137:D *735:1187 2.20753e-05
*RES
1 *8599:X *9137:D 15.81 
*END

*D_NET *91 0.0013385
*CONN
*I *9138:D I *D sky130_fd_sc_hd__dfrtp_1
*I *8597:X O *D sky130_fd_sc_hd__clkbuf_1
*CAP
1 *9138:D 0.000572659
2 *8597:X 0.000572659
3 *9138:D *8723:A 0
4 *9138:D *9138:RESET_B 5.82889e-06
5 *9138:D *670:8 0.000187352
6 *9138:D *735:1187 0
7 *9138:D *735:1189 0
8 *9138:D *759:18 0
*RES
1 *8597:X *9138:D 17.01 
*END

*D_NET *92 0.00112882
*CONN
*I *9024:D I *D sky130_fd_sc_hd__dfrtp_2
*I *8809:Y O *D sky130_fd_sc_hd__o2bb2ai_1
*CAP
1 *9024:D 0.000424028
2 *8809:Y 0.000424028
3 *9024:D *8809:A1_N 0.00021352
4 *9024:D *8809:A2_N 4.75576e-05
5 *9024:D *9033:D 0
6 *9024:D *431:58 4.43871e-06
7 *9024:D *735:66 1.52491e-05
8 *9024:D *735:80 0
*RES
1 *8809:Y *9024:D 15.06 
*END

*D_NET *93 0.000807957
*CONN
*I *9025:D I *D sky130_fd_sc_hd__dfrtp_2
*I *8812:Y O *D sky130_fd_sc_hd__o2bb2ai_1
*CAP
1 *9025:D 0.00031067
2 *8812:Y 0.00031067
3 *9025:D *8812:A2_N 2.50702e-05
4 *9025:D *431:30 5.91677e-05
5 *9025:D *715:22 0
6 *9025:D *715:35 0.00010238
*RES
1 *8812:Y *9025:D 11.4338 
*END

*D_NET *94 0.000256192
*CONN
*I *9026:D I *D sky130_fd_sc_hd__dfrtp_4
*I *8813:Y O *D sky130_fd_sc_hd__o2bb2ai_1
*CAP
1 *9026:D 8.95554e-05
2 *8813:Y 8.95554e-05
3 *9026:D *9026:RESET_B 3.00381e-05
4 *9026:D *597:8 4.7043e-05
*RES
1 *8813:Y *9026:D 9.03 
*END

*D_NET *95 0.00100336
*CONN
*I *9027:D I *D sky130_fd_sc_hd__dfrtp_4
*I *8814:Y O *D sky130_fd_sc_hd__o2bb2ai_1
*CAP
1 *9027:D 0.000427473
2 *8814:Y 0.000427473
3 *9027:D *8769:B 0
4 *9027:D *8814:A2_N 3.15634e-05
5 *9027:D *9027:CLK 0
6 *9027:D *431:12 0
7 *9027:D *431:20 0.000116853
8 *9027:D *715:35 0
9 *9027:D *735:21 0
*RES
1 *8814:Y *9027:D 13.995 
*END

*D_NET *96 0.000550477
*CONN
*I *9028:D I *D sky130_fd_sc_hd__dfrtp_4
*I *8815:Y O *D sky130_fd_sc_hd__o2bb2ai_1
*CAP
1 *9028:D 0.000152627
2 *8815:Y 0.000152627
3 *9028:D *431:44 4.70343e-05
4 *9028:D *452:62 0.000152129
5 *9028:D *587:29 4.60584e-05
*RES
1 *8815:Y *9028:D 10.065 
*END

*D_NET *97 0.000690353
*CONN
*I *9029:D I *D sky130_fd_sc_hd__dfrtp_4
*I *8817:Y O *D sky130_fd_sc_hd__o2bb2ai_1
*CAP
1 *9029:D 0.000235221
2 *8817:Y 0.000235221
3 *9029:D *8817:A2_N 5.53249e-06
4 *9029:D *8822:B2 5.00699e-05
5 *9029:D *9029:CLK 7.35729e-05
6 *9029:D *708:16 0
7 *9029:D *708:18 0
8 *9029:D *735:121 9.07358e-05
*RES
1 *8817:Y *9029:D 11.7 
*END

*D_NET *98 0.000728501
*CONN
*I *9030:D I *D sky130_fd_sc_hd__dfrtp_4
*I *8818:Y O *D sky130_fd_sc_hd__o2bb2ai_1
*CAP
1 *9030:D 0.000275766
2 *8818:Y 0.000275766
3 *9030:D *8818:A1_N 7.00889e-06
4 *9030:D *8818:A2_N 3.07153e-05
5 *9030:D *599:35 0.000139245
6 *9030:D *599:41 0
7 *9030:D *599:91 0
8 *9030:D *601:10 0
9 *9030:D *715:16 0
*RES
1 *8818:Y *9030:D 11.76 
*END

*D_NET *99 0.00172217
*CONN
*I *9031:D I *D sky130_fd_sc_hd__dfrtp_4
*I *8819:Y O *D sky130_fd_sc_hd__o2bb2ai_1
*CAP
1 *9031:D 0.000463615
2 *8819:Y 0.000463615
3 *9031:D *8818:A1_N 0.000141599
4 *9031:D *8819:A2_N 7.60965e-05
5 *9031:D *8830:A1_N 8.65905e-05
6 *9031:D *9031:CLK 0.000201303
7 *9031:D *431:56 2.65814e-06
8 *9031:D *599:35 3.67779e-05
9 *9031:D *715:18 0.000249914
*RES
1 *8819:Y *9031:D 15.96 
*END

*D_NET *100 0.000648343
*CONN
*I *9032:D I *D sky130_fd_sc_hd__dfrtp_1
*I *8820:Y O *D sky130_fd_sc_hd__o2bb2ai_1
*CAP
1 *9032:D 0.000216505
2 *8820:Y 0.000216505
3 *9032:D *8813:B1 0
4 *9032:D *9079:CLK 7.00889e-06
5 *9032:D *596:16 0
6 *9032:D *718:16 6.74794e-05
7 *9032:D *761:16 0.000140844
*RES
1 *8820:Y *9032:D 11.1788 
*END

*D_NET *101 0.00032875
*CONN
*I *9033:D I *D sky130_fd_sc_hd__dfrtp_2
*I *8822:Y O *D sky130_fd_sc_hd__o2bb2ai_1
*CAP
1 *9033:D 0.000164375
2 *8822:Y 0.000164375
3 *9033:D *8809:A2_N 0
4 *9033:D *708:20 0
5 *9024:D *9033:D 0
*RES
1 *8822:Y *9033:D 9.57 
*END

*D_NET *102 0.000599606
*CONN
*I *9034:D I *D sky130_fd_sc_hd__dfrtp_2
*I *8823:Y O *D sky130_fd_sc_hd__o2bb2ai_1
*CAP
1 *9034:D 0.000185127
2 *8823:Y 0.000185127
3 *9034:D *8823:A2_N 0.000122325
4 *9034:D *9034:CLK 1.85674e-05
5 *9034:D *9034:RESET_B 6.60261e-06
6 *9034:D *718:10 7.23533e-05
7 *9034:D *718:16 9.50342e-06
*RES
1 *8823:Y *9034:D 10.02 
*END

*D_NET *103 0.000552117
*CONN
*I *9035:D I *D sky130_fd_sc_hd__dfrtp_2
*I *8826:Y O *D sky130_fd_sc_hd__o2bb2ai_1
*CAP
1 *9035:D 0.000177359
2 *8826:Y 0.000177359
3 *9035:D *8823:A2_N 9.27255e-06
4 *9035:D *9035:CLK 6.74794e-05
5 *9035:D *452:34 0.000120647
6 *9035:D *718:10 0
*RES
1 *8826:Y *9035:D 9.82875 
*END

*D_NET *104 0.000703608
*CONN
*I *9036:D I *D sky130_fd_sc_hd__dfrtp_2
*I *8828:Y O *D sky130_fd_sc_hd__o2bb2ai_1
*CAP
1 *9036:D 0.000278349
2 *8828:Y 0.000278349
3 *9036:D *244:14 4.94404e-05
4 *9036:D *452:24 4.80285e-05
5 *9036:D *757:22 4.94404e-05
*RES
1 *8828:Y *9036:D 10.845 
*END

*D_NET *105 0.00101575
*CONN
*I *9037:D I *D sky130_fd_sc_hd__dfrtp_2
*I *8830:Y O *D sky130_fd_sc_hd__o2bb2ai_1
*CAP
1 *9037:D 0.000259556
2 *8830:Y 0.000259556
3 *9037:D *8817:A1_N 7.4027e-05
4 *9037:D *431:56 3.64998e-06
5 *9037:D *431:90 0.000294421
6 *9037:D *446:30 0.00012454
*RES
1 *8830:Y *9037:D 13.14 
*END

*D_NET *106 0.000853288
*CONN
*I *9038:D I *D sky130_fd_sc_hd__dfrtp_2
*I *8831:Y O *D sky130_fd_sc_hd__o2bb2ai_1
*CAP
1 *9038:D 0.0002134
2 *8831:Y 0.0002134
3 *9038:D *8831:B1 8.40269e-05
4 *9038:D *8831:B2 0.000123225
5 *9038:D *9038:CLK 0.0001249
6 *9038:D *592:6 9.43372e-05
*RES
1 *8831:Y *9038:D 7.805 
*END

*D_NET *107 0.00066869
*CONN
*I *9039:D I *D sky130_fd_sc_hd__dfrtp_2
*I *8833:Y O *D sky130_fd_sc_hd__o2bb2ai_1
*CAP
1 *9039:D 0.000206662
2 *8833:Y 0.000206662
3 *9039:D *8833:B1 0.000116716
4 *9039:D *8833:B2 9.99254e-05
5 *9039:D *9039:CLK 3.87237e-05
*RES
1 *8833:Y *9039:D 7.04 
*END

*D_NET *108 0.000503715
*CONN
*I *9040:D I *D sky130_fd_sc_hd__dfrtp_1
*I *8834:Y O *D sky130_fd_sc_hd__o2bb2ai_1
*CAP
1 *9040:D 7.26191e-05
2 *8834:Y 7.26191e-05
3 *9040:D *8834:B1 6.18016e-05
4 *9040:D *8834:B2 0.00012657
5 *9040:D *9040:CLK 0.00012657
6 *9040:D *451:32 4.35348e-05
*RES
1 *8834:Y *9040:D 5.84 
*END

*D_NET *109 0.000472147
*CONN
*I *9046:D I *D sky130_fd_sc_hd__dfrtp_4
*I *8838:X O *D sky130_fd_sc_hd__a21o_1
*CAP
1 *9046:D 0.000178481
2 *8838:X 0.000178481
3 *9046:D *237:71 0.000115184
4 *9046:D *735:1279 0
*RES
1 *8838:X *9046:D 9.825 
*END

*D_NET *110 0.000434995
*CONN
*I *9047:D I *D sky130_fd_sc_hd__dfrtp_4
*I *8842:X O *D sky130_fd_sc_hd__o21a_1
*CAP
1 *9047:D 0.000102439
2 *8842:X 0.000102439
3 *9047:D *8842:A1 4.92062e-05
4 *9047:D *8850:A1 0.000116158
5 *9047:D *9008:A1 6.47516e-05
*RES
1 *8842:X *9047:D 9.375 
*END

*D_NET *111 0.00135418
*CONN
*I *9048:D I *D sky130_fd_sc_hd__dfrtp_4
*I *8846:X O *D sky130_fd_sc_hd__o21a_1
*CAP
1 *9048:D 0.000418211
2 *8846:X 0.000418211
3 *9048:D *8840:B 1.01661e-05
4 *9048:D *8840:C 0.000143266
5 *9048:D *8841:B1 8.71001e-05
6 *9048:D *385:23 0
7 *9048:D *630:40 0.000198939
8 *9048:D *721:92 6.88253e-05
9 *9048:D *735:1364 9.46111e-06
*RES
1 *8846:X *9048:D 13.6987 
*END

*D_NET *112 0.00155272
*CONN
*I *9049:D I *D sky130_fd_sc_hd__dfrtp_1
*I *8850:X O *D sky130_fd_sc_hd__o21a_1
*CAP
1 *9049:D 0.000461414
2 *8850:X 0.000461414
3 *9049:D *8840:C 0
4 *9049:D *8850:A1 0.000203178
5 *9049:D *8850:B1 4.58166e-05
6 *9049:D *9049:CLK 0
7 *9049:D *385:23 0
8 *9049:D *668:10 0.000142661
9 *9049:D *721:70 6.47326e-05
10 *9049:D *721:85 7.35729e-05
11 *9049:D *735:1350 8.53113e-06
12 *9049:D *735:1364 9.14049e-05
*RES
1 *8850:X *9049:D 16.62 
*END

*D_NET *113 0.00163295
*CONN
*I *9050:D I *D sky130_fd_sc_hd__dfrtp_1
*I *8854:X O *D sky130_fd_sc_hd__o21a_1
*CAP
1 *9050:D 0.000465549
2 *8854:X 0.000465549
3 *9050:D *8507:C 0.000236651
4 *9050:D *8851:A2 0
5 *9050:D *8851:B1_N 0
6 *9050:D *8852:A_N 5.53549e-06
7 *9050:D *9050:RESET_B 0.00012657
8 *9050:D *9051:D 0.000134353
9 *9050:D *464:55 0
10 *9050:D *473:12 2.87867e-05
11 *9050:D *721:109 0.00016996
12 *9050:D *735:1406 0
*RES
1 *8854:X *9050:D 15.48 
*END

*D_NET *114 0.00140043
*CONN
*I *9051:D I *D sky130_fd_sc_hd__dfrtp_1
*I *8857:X O *D sky130_fd_sc_hd__o21a_1
*CAP
1 *9051:D 0.000267316
2 *8857:X 0.000267316
3 *9051:D *8507:B 0.00015639
4 *9051:D *8507:C 4.82863e-05
5 *9051:D *8854:A2 2.7441e-05
6 *9051:D *8857:B1 0.000156009
7 *9051:D *463:129 2.66586e-05
8 *9051:D *473:12 0
9 *9051:D *631:29 0.000275542
10 *9051:D *735:1406 4.18603e-06
11 *9051:D *735:1416 3.69334e-05
12 *9050:D *9051:D 0.000134353
*RES
1 *8857:X *9051:D 14.205 
*END

*D_NET *115 0.00252688
*CONN
*I *9052:D I *D sky130_fd_sc_hd__dfrtp_2
*I *8861:X O *D sky130_fd_sc_hd__clkbuf_1
*CAP
1 *9052:D 0.000472059
2 *8861:X 0.000472059
3 *9052:D *8508:B 5.83121e-06
4 *9052:D *8508:C 6.83549e-05
5 *9052:D *9052:RESET_B 3.00381e-05
6 *9052:D *9086:CLK 2.32597e-05
7 *9052:D *635:10 0.000279044
8 *9052:D *636:8 0.000162311
9 *9052:D *636:16 0.00045805
10 *9052:D *636:42 3.66286e-05
11 *9052:D *712:77 4.62268e-05
12 *8860:S *9052:D 0.000473021
*RES
1 *8861:X *9052:D 19.185 
*END

*D_NET *116 0.00133094
*CONN
*I *9053:D I *D sky130_fd_sc_hd__dfrtp_1
*I *8865:X O *D sky130_fd_sc_hd__o2bb2a_1
*CAP
1 *9053:D 0.000415381
2 *8865:X 0.000415381
3 *9053:D *8864:C1 0
4 *9053:D *8865:A2_N 3.86607e-05
5 *9053:D *206:70 0.00015997
6 *9053:D *463:74 0
7 *9053:D *712:50 0.000204782
8 *9053:D *712:63 6.49558e-05
9 *9053:D *745:61 3.18137e-05
*RES
1 *8865:X *9053:D 13.9388 
*END

*D_NET *117 0.000601941
*CONN
*I *9054:D I *D sky130_fd_sc_hd__dfrtp_1
*I *8868:X O *D sky130_fd_sc_hd__clkbuf_1
*CAP
1 *9054:D 0.000171914
2 *8868:X 0.000171914
3 *9054:D *8868:A 5.86036e-05
4 *9054:D *9054:RESET_B 6.28765e-05
5 *9054:D *636:42 2.04748e-05
6 *8860:S *9054:D 0.000116158
*RES
1 *8868:X *9054:D 10.065 
*END

*D_NET *118 0.000630384
*CONN
*I *9055:D I *D sky130_fd_sc_hd__dfrtp_1
*I *8873:X O *D sky130_fd_sc_hd__o21a_1
*CAP
1 *9055:D 0.000179812
2 *8873:X 0.000179812
3 *9055:D *8854:A1 9.71067e-05
4 *9055:D *8867:A1 0
5 *9055:D *9055:CLK 8.34362e-05
6 *9055:D *619:56 0
7 *9055:D *638:10 9.02174e-05
*RES
1 *8873:X *9055:D 11.115 
*END

*D_NET *119 0.00130389
*CONN
*I *9056:D I *D sky130_fd_sc_hd__dfrtp_2
*I *8876:X O *D sky130_fd_sc_hd__clkbuf_1
*CAP
1 *9056:D 0.000316574
2 *8876:X 0.000316574
3 *9056:D *8860:A1 0.000233101
4 *9056:D *8872:A 1.24244e-05
5 *9056:D *8872:B 9.50342e-06
6 *9056:D *8873:B1 0.000119756
7 *9056:D *8876:A 0.000218864
8 *9056:D *9082:CLK 6.58339e-05
9 *9056:D *624:16 1.12578e-05
*RES
1 *8876:X *9056:D 14.25 
*END

*D_NET *120 0.00100951
*CONN
*I *9057:D I *D sky130_fd_sc_hd__dfrtp_1
*I *8880:X O *D sky130_fd_sc_hd__o22a_1
*CAP
1 *9057:D 0.00017026
2 *8880:X 0.00017026
3 *9057:D *8880:A1 1.07797e-05
4 *9057:D *8880:B2 0.000184189
5 *9057:D *8886:A2 0.00015806
6 *9057:D *8889:A 0.000159957
7 *9057:D *9057:CLK 2.75145e-05
8 *9057:D *9058:CLK 6.77417e-05
9 *9057:D *619:56 6.07514e-05
*RES
1 *8880:X *9057:D 12.06 
*END

*D_NET *121 0.000595934
*CONN
*I *9058:D I *D sky130_fd_sc_hd__dfrtp_1
*I *8883:X O *D sky130_fd_sc_hd__o2bb2a_1
*CAP
1 *9058:D 0.000146961
2 *8883:X 0.000146961
3 *9058:D *8880:B1 0.000138799
4 *9058:D *9058:RESET_B 4.70477e-05
5 *9058:D *627:14 0.000116165
6 *9058:D *735:1602 0
*RES
1 *8883:X *9058:D 10.755 
*END

*D_NET *122 0.000822402
*CONN
*I *9059:D I *D sky130_fd_sc_hd__dfrtp_1
*I *8886:X O *D sky130_fd_sc_hd__o22a_1
*CAP
1 *9059:D 0.000234337
2 *8886:X 0.000234337
3 *9059:D *8880:B1 4.43871e-06
4 *9059:D *8886:A1 0.00011852
5 *9059:D *8886:A2 8.40269e-05
6 *9059:D *8889:A 4.40643e-05
7 *9059:D *9058:CLK 6.07575e-06
8 *9059:D *712:14 9.66021e-05
*RES
1 *8886:X *9059:D 11.1 
*END

*D_NET *123 0.00094242
*CONN
*I *9060:D I *D sky130_fd_sc_hd__dfrtp_1
*I *8890:X O *D sky130_fd_sc_hd__o31a_1
*CAP
1 *9060:D 0.000161266
2 *8890:X 0.000161266
3 *9060:D *8865:B1 7.10957e-05
4 *9060:D *8884:A1 3.90266e-05
5 *9060:D *8890:A2 0.000291365
6 *9060:D *8891:A1 0.000103192
7 *9060:D *9060:CLK 5.83121e-06
8 *9060:D *577:26 0.000109377
*RES
1 *8890:X *9060:D 12.45 
*END

*D_NET *124 0.000819807
*CONN
*I *9061:D I *D sky130_fd_sc_hd__dfrtp_1
*I *8892:X O *D sky130_fd_sc_hd__a21o_1
*CAP
1 *9061:D 0.000179481
2 *8892:X 0.000179481
3 *9061:D *8608:A 0.000136182
4 *9061:D *8838:A1 5.00699e-05
5 *9061:D *8842:A1 0.000267584
6 *9061:D *9061:CLK 7.00889e-06
*RES
1 *8892:X *9061:D 11.505 
*END

*D_NET *125 0.00158995
*CONN
*I *9062:D I *D sky130_fd_sc_hd__dfrtp_2
*I *8898:X O *D sky130_fd_sc_hd__a22o_1
*CAP
1 *9062:D 0.000324535
2 *8898:X 0.000324535
3 *9062:D *8949:B2 0.000165269
4 *9062:D *8950:A1 5.92269e-05
5 *9062:D *8951:A4 0.000269952
6 *9062:D *9062:RESET_B 4.37586e-05
7 *9062:D *9073:CLK 0.000111901
8 *9062:D *239:103 0
9 *9062:D *579:6 4.66826e-05
10 *9062:D *579:12 8.247e-05
11 *9062:D *706:8 0.000130707
12 *9062:D *706:18 3.09164e-05
*RES
1 *8898:X *9062:D 15.915 
*END

*D_NET *126 0.000884613
*CONN
*I *9063:D I *D sky130_fd_sc_hd__dfstp_1
*I *8905:X O *D sky130_fd_sc_hd__o32a_1
*CAP
1 *9063:D 0.000247294
2 *8905:X 0.000247294
3 *9063:D *8693:A1 8.40269e-05
4 *9063:D *8709:A1 2.19562e-06
5 *9063:D *8905:A1 3.1835e-05
6 *9063:D *8907:B1 0.000116151
7 *9063:D *510:110 0.000116151
8 *9063:D *618:14 3.96653e-05
*RES
1 *8905:X *9063:D 11.1 
*END

*D_NET *127 0.000907511
*CONN
*I *9064:D I *D sky130_fd_sc_hd__dfstp_1
*I *8907:X O *D sky130_fd_sc_hd__o32a_1
*CAP
1 *9064:D 0.000239911
2 *8907:X 0.000239911
3 *9064:D *8699:A1 6.38722e-05
4 *9064:D *8907:A2 8.49205e-05
5 *9064:D *8907:B1 0.000113416
6 *9064:D *510:110 0.000103057
7 *9064:D *510:129 1.88904e-05
8 *9064:D *619:14 4.35348e-05
*RES
1 *8907:X *9064:D 11.1 
*END

*D_NET *128 0.000949444
*CONN
*I *9065:D I *D sky130_fd_sc_hd__dfstp_1
*I *8909:X O *D sky130_fd_sc_hd__o32a_1
*CAP
1 *9065:D 0.000158234
2 *8909:X 0.000158234
3 *9065:D *8909:A3 0.000219812
4 *9065:D *8909:B1 5.56735e-05
5 *9065:D *508:66 5.05437e-05
6 *9065:D *512:98 0.000233786
7 *9065:D *605:10 7.31608e-05
*RES
1 *8909:X *9065:D 8.63 
*END

*D_NET *129 0.000763118
*CONN
*I *9066:D I *D sky130_fd_sc_hd__dfstp_1
*I *8911:X O *D sky130_fd_sc_hd__o32a_1
*CAP
1 *9066:D 0.000171535
2 *8911:X 0.000171535
3 *9066:D *8911:A3 3.68596e-05
4 *9066:D *8911:B1 0.000123225
5 *9066:D *9085:D 0
6 *9066:D *608:33 0.00012657
7 *9066:D *713:134 0.000108785
8 *9066:D *713:138 2.46089e-05
*RES
1 *8911:X *9066:D 10.965 
*END

*D_NET *130 0.00126491
*CONN
*I *9067:D I *D sky130_fd_sc_hd__dfstp_1
*I *8913:X O *D sky130_fd_sc_hd__o32a_1
*CAP
1 *9067:D 0.000422973
2 *8913:X 0.000422973
3 *9067:D *8913:A1 0.00015829
4 *9067:D *8915:A2 4.82863e-05
5 *9067:D *8915:A3 0
6 *9067:D *8915:B2 0
7 *9067:D *9041:CLK 4.43871e-06
8 *9067:D *9068:D 0
9 *9067:D *9069:D 0
10 *9067:D *710:42 0
11 *9067:D *710:70 0
12 *9067:D *710:85 0.00011741
13 *9067:D *710:111 9.05377e-05
*RES
1 *8913:X *9067:D 15.15 
*END

*D_NET *131 0.000497001
*CONN
*I *9068:D I *D sky130_fd_sc_hd__dfstp_1
*I *8915:X O *D sky130_fd_sc_hd__o32a_1
*CAP
1 *9068:D 0.000209089
2 *8915:X 0.000209089
3 *9068:D *8915:A1 7.29911e-05
4 *9068:D *710:46 5.83121e-06
5 *9068:D *710:70 0
6 *9068:D *710:85 0
7 *9067:D *9068:D 0
*RES
1 *8915:X *9068:D 10.065 
*END

*D_NET *132 0.000785067
*CONN
*I *9069:D I *D sky130_fd_sc_hd__dfstp_1
*I *8917:X O *D sky130_fd_sc_hd__o32a_1
*CAP
1 *9069:D 0.000288306
2 *8917:X 0.000288306
3 *9069:D *8915:B2 0.000112907
4 *9069:D *9084:CLK 4.77719e-05
5 *9069:D *508:75 4.77757e-05
6 *9067:D *9069:D 0
*RES
1 *8917:X *9069:D 12.075 
*END

*D_NET *133 0.00131731
*CONN
*I *9070:D I *D sky130_fd_sc_hd__dfstp_1
*I *8919:X O *D sky130_fd_sc_hd__o32a_1
*CAP
1 *9070:D 0.000445918
2 *8919:X 0.000445918
3 *9070:D *8919:A3 1.6408e-05
4 *9070:D *8919:B1 0.000272085
5 *9070:D *8919:B2 5.27873e-05
6 *9070:D *713:112 8.41921e-05
*RES
1 *8919:X *9070:D 9.755 
*END

*D_NET *134 0.000499615
*CONN
*I *9071:D I *D sky130_fd_sc_hd__dfrtp_1
*I *8924:X O *D sky130_fd_sc_hd__a32o_1
*CAP
1 *9071:D 0.000121744
2 *8924:X 0.000121744
3 *9071:D *8702:A1 8.88631e-05
4 *9071:D *8924:A3 4.40899e-05
5 *9071:D *8935:A1 0.000116165
6 *9071:D *9071:RESET_B 7.00889e-06
*RES
1 *8924:X *9071:D 10.065 
*END

*D_NET *135 0.000805581
*CONN
*I *9072:D I *D sky130_fd_sc_hd__dfrtp_1
*I *8925:X O *D sky130_fd_sc_hd__a32o_1
*CAP
1 *9072:D 0.000248344
2 *8925:X 0.000248344
3 *9072:D *8693:C1 6.71767e-05
4 *9072:D *8925:A3 7.02853e-05
5 *9072:D *8950:A1 7.4027e-05
6 *9072:D *9072:CLK 8.81313e-05
7 *9072:D *208:55 9.27255e-06
*RES
1 *8925:X *9072:D 10.95 
*END

*D_NET *136 0.00130524
*CONN
*I *9073:D I *D sky130_fd_sc_hd__dfrtp_1
*I *8926:X O *D sky130_fd_sc_hd__a32o_1
*CAP
1 *9073:D 0.000248204
2 *8926:X 0.000248204
3 *9073:D *8710:B 0.000116642
4 *9073:D *8926:A3 1.16578e-05
5 *9073:D *9073:RESET_B 0.000112855
6 *9073:D *239:116 7.29917e-05
7 *9073:D *347:49 0.00032189
8 *9073:D *521:26 0.000136599
9 *9073:D *707:88 1.16578e-05
10 *9073:D *736:41 2.45351e-05
*RES
1 *8926:X *9073:D 14.22 
*END

*D_NET *137 0.00110779
*CONN
*I *9074:D I *D sky130_fd_sc_hd__dfrtp_1
*I *8927:X O *D sky130_fd_sc_hd__a32o_1
*CAP
1 *9074:D 0.000259537
2 *8927:X 0.000259537
3 *9074:D *8711:A1 8.40213e-05
4 *9074:D *8714:B2 6.83629e-05
5 *9074:D *9074:RESET_B 0.000108985
6 *9074:D *730:6 4.66826e-05
7 *9074:D *739:34 0.000280665
*RES
1 *8927:X *9074:D 9.515 
*END

*D_NET *138 0.00179025
*CONN
*I *9075:D I *D sky130_fd_sc_hd__dfrtp_1
*I *8928:X O *D sky130_fd_sc_hd__a32o_1
*CAP
1 *9075:D 0.000392906
2 *8928:X 0.000392906
3 *9075:D *8928:A2 0
4 *9075:D *8951:A1 0.000409972
5 *9075:D *8951:A4 6.54766e-05
6 *9075:D *735:461 0.000119016
7 *9075:D *740:58 0.000409972
*RES
1 *8928:X *9075:D 15.8737 
*END

*D_NET *139 0.000528695
*CONN
*I *9076:D I *D sky130_fd_sc_hd__dfrtp_1
*I *8929:X O *D sky130_fd_sc_hd__a32o_1
*CAP
1 *9076:D 0.000147602
2 *8929:X 0.000147602
3 *9076:D *8912:B 7.23602e-05
4 *9076:D *8914:B 7.23533e-05
5 *9076:D *8928:B1 8.53113e-06
6 *9076:D *9076:RESET_B 8.0246e-05
*RES
1 *8929:X *9076:D 9.48375 
*END

*D_NET *140 0.000266595
*CONN
*I *9077:D I *D sky130_fd_sc_hd__dfrtp_1
*I *8930:X O *D sky130_fd_sc_hd__a32o_1
*CAP
1 *9077:D 7.64269e-05
2 *8930:X 7.64269e-05
3 *9077:D *8930:A1 2.11084e-05
4 *9077:D *9077:RESET_B 3.86607e-05
5 *9077:D *9078:CLK 5.39718e-05
*RES
1 *8930:X *9077:D 8.775 
*END

*D_NET *141 0.00068664
*CONN
*I *9078:D I *D sky130_fd_sc_hd__dfrtp_4
*I *8931:X O *D sky130_fd_sc_hd__a32o_1
*CAP
1 *9078:D 0.000159806
2 *8931:X 0.000159806
3 *9078:D *8914:B 3.64998e-06
4 *9078:D *8916:B 0
5 *9078:D *9078:RESET_B 8.9245e-05
6 *9078:D *234:46 0.000157968
7 *9078:D *521:88 0.000116165
*RES
1 *8931:X *9078:D 11.1 
*END

*D_NET *142 0.00107738
*CONN
*I *9098:D I *D sky130_fd_sc_hd__dfrtp_1
*I *8933:X O *D sky130_fd_sc_hd__a22o_1
*CAP
1 *9098:D 0.000385941
2 *8933:X 0.000385941
3 *9098:D *8551:B 4.70919e-05
4 *9098:D *8552:B1 0
5 *9098:D *8678:A 9.044e-05
6 *9098:D *8933:A1 2.67538e-05
7 *9098:D *8934:B2 0
8 *9098:D *9098:RESET_B 7.8198e-05
9 *9098:D *724:8 6.3014e-05
10 *9098:D *742:58 0
*RES
1 *8933:X *9098:D 12.915 
*END

*D_NET *143 0.00105028
*CONN
*I *9099:D I *D sky130_fd_sc_hd__dfrtp_1
*I *8934:X O *D sky130_fd_sc_hd__a22o_1
*CAP
1 *9099:D 0.000279993
2 *8934:X 0.000279993
3 *9099:D *8547:C 8.71001e-05
4 *9099:D *8719:B 9.46111e-06
5 *9099:D *8934:B2 0.000232105
6 *9099:D *8947:B2 0.00016163
*RES
1 *8934:X *9099:D 11.955 
*END

*D_NET *144 0.000849388
*CONN
*I *9100:D I *D sky130_fd_sc_hd__dfrtp_1
*I *8935:X O *D sky130_fd_sc_hd__a22o_1
*CAP
1 *9100:D 0.000246112
2 *8935:X 0.000246112
3 *9100:D *8935:B1 0.000118081
4 *9100:D *8935:B2 9.77268e-05
5 *9100:D *236:77 9.47454e-05
6 *9100:D *524:12 4.66108e-05
*RES
1 *8935:X *9100:D 10.845 
*END

*D_NET *145 0.00193232
*CONN
*I *9101:D I *D sky130_fd_sc_hd__dfrtp_1
*I *8939:X O *D sky130_fd_sc_hd__a22o_1
*CAP
1 *9101:D 0.000741514
2 *8939:X 0.000741514
3 *9101:D *8939:B2 1.56428e-05
4 *9101:D *8946:B2 2.80936e-05
5 *9101:D *9101:CLK 4.66742e-05
6 *9101:D *9102:D 0
7 *9101:D *525:48 0.000181698
8 *9101:D *735:215 6.73665e-05
9 *9101:D *735:222 3.90389e-05
10 *9101:D *741:16 7.07801e-05
11 *9101:D *764:14 0
*RES
1 *8939:X *9101:D 18.735 
*END

*D_NET *146 0.00163406
*CONN
*I *9102:D I *D sky130_fd_sc_hd__dfrtp_1
*I *8940:X O *D sky130_fd_sc_hd__a22o_1
*CAP
1 *9102:D 0.000469363
2 *8940:X 0.000469363
3 *9102:D *8939:B2 0
4 *9102:D *8940:A1 0.000124007
5 *9102:D *8940:B1 2.30292e-05
6 *9102:D *722:87 4.92062e-05
7 *9102:D *735:215 0
8 *9102:D *764:14 0.000499089
9 *9101:D *9102:D 0
*RES
1 *8940:X *9102:D 16.23 
*END

*D_NET *147 0.000389848
*CONN
*I *9103:D I *D sky130_fd_sc_hd__dfrtp_1
*I *8941:X O *D sky130_fd_sc_hd__a22o_1
*CAP
1 *9103:D 0.000121148
2 *8941:X 0.000121148
3 *9103:D *525:48 5.21046e-05
4 *9103:D *741:16 9.54469e-05
*RES
1 *8941:X *9103:D 9.465 
*END

*D_NET *148 0.0006801
*CONN
*I *9104:D I *D sky130_fd_sc_hd__dfrtp_1
*I *8942:X O *D sky130_fd_sc_hd__a22o_1
*CAP
1 *9104:D 0.000284889
2 *8942:X 0.000284889
3 *9104:D *9074:RESET_B 0
4 *9104:D *345:87 3.21081e-06
5 *9104:D *735:847 0.000107112
*RES
1 *8942:X *9104:D 10.95 
*END

*D_NET *149 0.00090792
*CONN
*I *9105:D I *D sky130_fd_sc_hd__dfrtp_1
*I *8943:X O *D sky130_fd_sc_hd__a22o_1
*CAP
1 *9105:D 0.000389771
2 *8943:X 0.000389771
3 *9105:D *9126:RESET_B 8.53021e-05
4 *9105:D *689:14 0
5 *9105:D *709:30 3.45453e-05
6 *9105:D *735:473 8.53113e-06
7 *9105:D *738:12 0
*RES
1 *8943:X *9105:D 12.6788 
*END

*D_NET *150 0.000597899
*CONN
*I *9106:D I *D sky130_fd_sc_hd__dfrtp_1
*I *8944:X O *D sky130_fd_sc_hd__a22o_1
*CAP
1 *9106:D 0.000178607
2 *8944:X 0.000178607
3 *9106:D *8944:A1 3.86607e-05
4 *9106:D *8944:B1 4.99619e-05
5 *9106:D *525:28 2.75145e-05
6 *9106:D *525:36 2.7441e-05
7 *9106:D *739:10 9.71067e-05
*RES
1 *8944:X *9106:D 10.155 
*END

*D_NET *151 0.00037981
*CONN
*I *9107:D I *D sky130_fd_sc_hd__dfrtp_1
*I *8945:X O *D sky130_fd_sc_hd__a22o_1
*CAP
1 *9107:D 0.000114795
2 *8945:X 0.000114795
3 *9107:D *8945:A1 9.10527e-05
4 *9107:D *8945:A2 1.08758e-05
5 *9107:D *8981:B2 4.82919e-05
*RES
1 *8945:X *9107:D 5.39 
*END

*D_NET *152 0.00121891
*CONN
*I *9108:D I *D sky130_fd_sc_hd__dfrtp_1
*I *8946:X O *D sky130_fd_sc_hd__a22o_1
*CAP
1 *9108:D 0.00053417
2 *8946:X 0.00053417
3 *9108:D *9108:CLK 3.26889e-05
4 *9108:D *686:8 7.06865e-05
5 *9108:D *686:39 8.53113e-06
6 *9108:D *692:10 3.86607e-05
*RES
1 *8946:X *9108:D 13.365 
*END

*D_NET *153 0.000337895
*CONN
*I *9109:D I *D sky130_fd_sc_hd__dfrtp_4
*I *8949:X O *D sky130_fd_sc_hd__a22o_1
*CAP
1 *9109:D 0.00011757
2 *8949:X 0.00011757
3 *9109:D *8949:A2 2.66586e-05
4 *9109:D *8949:B1 0
5 *9109:D *9109:CLK 7.60965e-05
*RES
1 *8949:X *9109:D 5.39 
*END

*D_NET *154 0.000461531
*CONN
*I *9110:D I *D sky130_fd_sc_hd__dfrtp_4
*I *8950:X O *D sky130_fd_sc_hd__a22o_1
*CAP
1 *9110:D 0.000153021
2 *8950:X 0.000153021
3 *9110:D *8952:A1 3.09179e-05
4 *9110:D *8952:A2 7.4027e-05
5 *9110:D *8952:B1_N 0
6 *9110:D *9110:CLK 5.05437e-05
*RES
1 *8950:X *9110:D 10.17 
*END

*D_NET *155 0.000803615
*CONN
*I *9111:D I *D sky130_fd_sc_hd__dfrtp_2
*I *8952:Y O *D sky130_fd_sc_hd__a21boi_1
*CAP
1 *9111:D 0.000331128
2 *8952:Y 0.000331128
3 *9111:D *8952:A1 5.83121e-06
4 *9111:D *8952:A2 8.53113e-06
5 *9111:D *8952:B1_N 4.80285e-05
6 *9111:D *8953:B2 7.89689e-05
7 *9111:D *9110:CLK 0
*RES
1 *8952:Y *9111:D 12.495 
*END

*D_NET *156 0.000649592
*CONN
*I *9112:D I *D sky130_fd_sc_hd__dfrtp_4
*I *8953:X O *D sky130_fd_sc_hd__a22o_1
*CAP
1 *9112:D 0.000265186
2 *8953:X 0.000265186
3 *9112:D *8952:B1_N 0
4 *9112:D *8953:A2 5.83121e-06
5 *9112:D *8953:B1 8.73389e-06
6 *9112:D *9112:CLK 8.63095e-05
7 *9112:D *529:18 0
8 *9112:D *735:358 0
9 *9112:D *763:26 1.83463e-05
*RES
1 *8953:X *9112:D 10.665 
*END

*D_NET *157 0.00125881
*CONN
*I *9114:D I *D sky130_fd_sc_hd__dfstp_1
*I *8955:X O *D sky130_fd_sc_hd__o32a_1
*CAP
1 *9114:D 0.00033716
2 *8955:X 0.00033716
3 *9114:D *8697:B2 0.000275548
4 *9114:D *572:20 0.000116151
5 *9114:D *604:16 7.66388e-05
6 *9114:D *707:10 0.000116151
*RES
1 *8955:X *9114:D 12.48 
*END

*D_NET *158 0.000932124
*CONN
*I *9115:D I *D sky130_fd_sc_hd__dfstp_1
*I *8956:X O *D sky130_fd_sc_hd__o32a_1
*CAP
1 *9115:D 0.000327227
2 *8956:X 0.000327227
3 *9115:D *8956:A3 4.81931e-05
4 *9115:D *352:60 2.50573e-05
5 *9115:D *707:16 4.80285e-05
6 *9115:D *711:78 0.00015639
*RES
1 *8956:X *9115:D 8.165 
*END

*D_NET *159 0.00067174
*CONN
*I *9116:D I *D sky130_fd_sc_hd__dfstp_1
*I *8957:X O *D sky130_fd_sc_hd__o32a_1
*CAP
1 *9116:D 0.000200043
2 *8957:X 0.000200043
3 *9116:D *8728:B2 7.00115e-05
4 *9116:D *8957:A1 4.41506e-05
5 *9116:D *9085:D 3.51667e-05
6 *9116:D *510:108 0.000122325
*RES
1 *8957:X *9116:D 10.62 
*END

*D_NET *160 0.00057685
*CONN
*I *9117:D I *D sky130_fd_sc_hd__dfstp_1
*I *8958:X O *D sky130_fd_sc_hd__o32a_1
*CAP
1 *9117:D 0.000162208
2 *8958:X 0.000162208
3 *9117:D *8958:A1 5.05437e-05
4 *9117:D *8958:A2 8.11756e-05
5 *9117:D *9085:D 0.00011852
6 *9117:D *574:18 2.19562e-06
*RES
1 *8958:X *9117:D 10.065 
*END

*D_NET *161 0.000962627
*CONN
*I *9118:D I *D sky130_fd_sc_hd__dfstp_2
*I *8959:X O *D sky130_fd_sc_hd__o32a_1
*CAP
1 *9118:D 0.000271535
2 *8959:X 0.000271535
3 *9118:D *8716:A1 0.000283168
4 *9118:D *8727:B2 5.00699e-05
5 *9118:D *8960:B1 8.63188e-05
*RES
1 *8959:X *9118:D 12.45 
*END

*D_NET *162 0.000393261
*CONN
*I *9119:D I *D sky130_fd_sc_hd__dfstp_2
*I *8960:X O *D sky130_fd_sc_hd__o32a_1
*CAP
1 *9119:D 0.000133212
2 *8960:X 0.000133212
3 *9119:D *8716:A1 0
4 *9119:D *509:27 0
5 *9119:D *518:10 7.60965e-05
6 *9119:D *519:14 5.07419e-05
*RES
1 *8960:X *9119:D 9.975 
*END

*D_NET *163 0.00169753
*CONN
*I *9120:D I *D sky130_fd_sc_hd__dfstp_1
*I *8961:X O *D sky130_fd_sc_hd__o32a_1
*CAP
1 *9120:D 0.000368302
2 *8961:X 0.000368302
3 *9120:D *8728:B2 9.0444e-05
4 *9120:D *8902:A 4.21973e-05
5 *9120:D *8957:A1 8.53113e-06
6 *9120:D *8961:A2 0.000120655
7 *9120:D *8961:A3 1.33285e-05
8 *9120:D *9085:D 6.65057e-05
9 *9120:D *509:60 8.53113e-06
10 *9120:D *509:64 4.31189e-05
11 *9120:D *509:77 0.000155497
12 *9120:D *510:14 4.31189e-05
13 *9120:D *614:56 0.00022786
14 *9120:D *615:45 8.23457e-05
15 *9120:D *616:8 2.75229e-05
16 *9120:D *713:66 1.197e-05
17 *9120:D *713:89 1.92979e-05
*RES
1 *8961:X *9120:D 18.76 
*END

*D_NET *164 0.00110706
*CONN
*I *9121:D I *D sky130_fd_sc_hd__dfstp_1
*I *8962:X O *D sky130_fd_sc_hd__o32a_1
*CAP
1 *9121:D 0.000355608
2 *8962:X 0.000355608
3 *9121:D *8709:A1 2.86623e-05
4 *9121:D *8909:A3 5.23362e-05
5 *9121:D *8962:A1 2.63322e-05
6 *9121:D *8962:B1 0.000126338
7 *9121:D *531:97 0.000155497
8 *9121:D *644:90 6.68173e-06
*RES
1 *8962:X *9121:D 12.165 
*END

*D_NET *165 0.000334044
*CONN
*I *9123:D I *D sky130_fd_sc_hd__dfrtp_1
*I *8969:X O *D sky130_fd_sc_hd__a22o_1
*CAP
1 *9123:D 8.24008e-05
2 *8969:X 8.24008e-05
3 *9123:D *8969:A1 0.000133373
4 *9123:D *8969:B1 5.83121e-06
5 *9123:D *9123:CLK 3.00381e-05
*RES
1 *8969:X *9123:D 5.39 
*END

*D_NET *166 0.000336816
*CONN
*I *9124:D I *D sky130_fd_sc_hd__dfrtp_1
*I *8971:X O *D sky130_fd_sc_hd__a22o_1
*CAP
1 *9124:D 0.000105768
2 *8971:X 0.000105768
3 *9124:D *8953:A1 0.00012528
*RES
1 *8971:X *9124:D 4.61375 
*END

*D_NET *167 0.000340522
*CONN
*I *9125:D I *D sky130_fd_sc_hd__dfrtp_1
*I *8973:X O *D sky130_fd_sc_hd__a22o_1
*CAP
1 *9125:D 8.59176e-05
2 *8973:X 8.59176e-05
3 *9125:D *347:57 8.65961e-05
4 *9125:D *722:22 3.38041e-05
5 *9125:D *722:67 4.82863e-05
*RES
1 *8973:X *9125:D 5.045 
*END

*D_NET *168 0.000619197
*CONN
*I *9126:D I *D sky130_fd_sc_hd__dfrtp_1
*I *8975:X O *D sky130_fd_sc_hd__a22o_1
*CAP
1 *9126:D 0.000156918
2 *8975:X 0.000156918
3 *9126:D *8975:A1 0.000160641
4 *9126:D *8977:A2 0
5 *9126:D *8978:S 7.23602e-05
6 *9126:D *696:12 7.23602e-05
7 *9126:D *738:12 0
*RES
1 *8975:X *9126:D 9.81 
*END

*D_NET *169 0.000554949
*CONN
*I *9127:D I *D sky130_fd_sc_hd__dfrtp_1
*I *8977:X O *D sky130_fd_sc_hd__a22o_1
*CAP
1 *9127:D 0.000144984
2 *8977:X 0.000144984
3 *9127:D *9105:CLK 1.57678e-05
4 *9127:D *9126:CLK 3.09164e-05
5 *9127:D *9127:CLK 2.49909e-05
6 *9127:D *697:10 9.60434e-05
7 *9127:D *709:36 1.4389e-05
8 *9127:D *709:80 8.28738e-05
*RES
1 *8977:X *9127:D 10.35 
*END

*D_NET *170 0.00114385
*CONN
*I *9128:D I *D sky130_fd_sc_hd__dfrtp_1
*I *8979:X O *D sky130_fd_sc_hd__a22o_1
*CAP
1 *9128:D 0.000474487
2 *8979:X 0.000474487
3 *9128:D *9128:RESET_B 8.68646e-05
4 *9128:D *709:36 5.6695e-05
5 *9128:D *735:909 5.13155e-05
*RES
1 *8979:X *9128:D 14.0588 
*END

*D_NET *171 0.000445102
*CONN
*I *9129:D I *D sky130_fd_sc_hd__dfrtp_1
*I *8981:X O *D sky130_fd_sc_hd__a22o_1
*CAP
1 *9129:D 0.000166609
2 *8981:X 0.000166609
3 *9129:D *525:28 9.50342e-06
4 *9129:D *699:14 0
5 *9129:D *722:67 0.00010238
6 *9129:D *741:16 0
*RES
1 *8981:X *9129:D 9.60375 
*END

*D_NET *172 0.000499717
*CONN
*I *9130:D I *D sky130_fd_sc_hd__dfrtp_1
*I *8983:X O *D sky130_fd_sc_hd__a22o_1
*CAP
1 *9130:D 0.000150076
2 *8983:X 0.000150076
3 *9130:D *8983:A1 1.1392e-05
4 *9130:D *9130:CLK 2.75145e-05
5 *9130:D *534:114 0.000160658
6 *9130:D *537:50 0
*RES
1 *8983:X *9130:D 9.99 
*END

*D_NET *173 0.00130983
*CONN
*I *9131:D I *D sky130_fd_sc_hd__dfstp_2
*I *8986:Y O *D sky130_fd_sc_hd__o211ai_1
*CAP
1 *9131:D 0.000409093
2 *8986:Y 0.000409093
3 *9131:D *8591:A_N 0
4 *9131:D *8986:A1 0.000491641
*RES
1 *8986:Y *9131:D 13.17 
*END

*D_NET *174 0.000704729
*CONN
*I *9132:D I *D sky130_fd_sc_hd__dfstp_2
*I *8995:X O *D sky130_fd_sc_hd__o21a_1
*CAP
1 *9132:D 0.000187349
2 *8995:X 0.000187349
3 *9132:D *8995:A1 7.17811e-05
4 *9132:D *8995:A2 3.64522e-05
5 *9132:D *8995:B1 0.000136877
6 *9132:D *9132:CLK 8.49205e-05
*RES
1 *8995:X *9132:D 10.77 
*END

*D_NET *175 0.000174042
*CONN
*I *9133:D I *D sky130_fd_sc_hd__dfrtp_1
*I *8996:Y O *D sky130_fd_sc_hd__o2bb2ai_1
*CAP
1 *9133:D 5.91439e-05
2 *8996:Y 5.91439e-05
3 *9133:D *8591:C 1.71013e-05
4 *9133:D *8996:A2_N 3.86529e-05
5 *9133:D *9133:CLK 0
*RES
1 *8996:Y *9133:D 8.325 
*END

*D_NET *176 0.00109246
*CONN
*I *9135:D I *D sky130_fd_sc_hd__dfxtp_1
*I *8999:X O *D sky130_fd_sc_hd__clkbuf_1
*CAP
1 *9135:D 0.000389872
2 *8999:X 0.000389872
3 *9135:D *8745:A 0.000144447
4 *9135:D *9135:CLK 0
5 *9135:D *572:20 0
6 *9135:D *613:16 0.000141606
7 *9135:D *711:20 0
8 *9141:D *9135:D 2.66586e-05
*RES
1 *8999:X *9135:D 14.2238 
*END

*D_NET *177 0.000410784
*CONN
*I *9143:D I *D sky130_fd_sc_hd__dfrtp_1
*I *9001:X O *D sky130_fd_sc_hd__o211a_1
*CAP
1 *9143:D 0.000112911
2 *9001:X 0.000112911
3 *9143:D *9000:B_N 0
4 *9143:D *9134:CLK 0.000107634
5 *9143:D *9143:CLK 2.49909e-05
6 *9143:D *707:157 0
7 *9143:D *715:101 5.23362e-05
*RES
1 *9001:X *9143:D 9.54 
*END

*D_NET *178 0.000878748
*CONN
*I *9144:D I *D sky130_fd_sc_hd__dfstp_1
*I *9003:X O *D sky130_fd_sc_hd__a21o_1
*CAP
1 *9144:D 0.000231928
2 *9003:X 0.000231928
3 *9144:D *8630:A2 0.000139478
4 *9144:D *9003:B1 0.000138544
5 *9144:D *9005:B1 0.00013687
*RES
1 *9003:X *9144:D 12.405 
*END

*D_NET *179 0.000854688
*CONN
*I *9145:D I *D sky130_fd_sc_hd__dfstp_1
*I *9005:X O *D sky130_fd_sc_hd__a21o_1
*CAP
1 *9145:D 0.000281744
2 *9005:X 0.000281744
3 *9145:D *234:22 0.000179652
4 *9145:D *292:49 0
5 *9139:D *9145:D 0.000111547
*RES
1 *9005:X *9145:D 12.66 
*END

*D_NET *180 0.00194351
*CONN
*I *9146:D I *D sky130_fd_sc_hd__dfstp_1
*I *9007:X O *D sky130_fd_sc_hd__a21o_1
*CAP
1 *9146:D 0.000501582
2 *9007:X 0.000501582
3 *9146:D *8721:A1 0.000368831
4 *9146:D *9146:CLK 9.80917e-05
5 *9146:D *9146:SET_B 3.82741e-05
6 *9146:D *234:22 0.000101663
7 *9146:D *292:74 2.04694e-05
8 *9146:D *612:42 0.000234669
9 *9146:D *713:10 7.83475e-05
*RES
1 *9007:X *9146:D 13.9524 
*END

*D_NET *181 0.00105192
*CONN
*I *9166:D I *D sky130_fd_sc_hd__dfstp_1
*I *9009:X O *D sky130_fd_sc_hd__a21o_1
*CAP
1 *9166:D 0.000142403
2 *9009:X 0.000142403
3 *9166:D *9012:A1 7.4027e-05
4 *9166:D *9013:A2 0.000225182
5 *9166:D *292:80 0.000249928
6 *9166:D *665:10 0.000217973
*RES
1 *9009:X *9166:D 12.66 
*END

*D_NET *182 0.00172156
*CONN
*I *9167:D I *D sky130_fd_sc_hd__dfstp_1
*I *9011:X O *D sky130_fd_sc_hd__a21o_1
*CAP
1 *9167:D 0.000262404
2 *9011:X 0.000262404
3 *9167:D *9011:A2 0.000184986
4 *9167:D *9013:A2 7.70828e-05
5 *9167:D *9167:CLK 4.66108e-05
6 *9167:D *9183:A 0.000191232
7 *9167:D *275:106 0.000187759
8 *9167:D *292:80 0.000109016
9 *9167:D *619:56 0.0001022
10 *9167:D *650:10 6.48692e-05
11 *9167:D *707:31 0.000232999
*RES
1 *9011:X *9167:D 15.42 
*END

*D_NET *183 0.000552645
*CONN
*I *9168:D I *D sky130_fd_sc_hd__dfstp_1
*I *9013:X O *D sky130_fd_sc_hd__a21o_1
*CAP
1 *9168:D 0.000124802
2 *9013:X 0.000124802
3 *9168:D *9013:B1 0.000116158
4 *9168:D *234:22 6.28765e-05
5 *9168:D *735:625 0.000124007
*RES
1 *9013:X *9168:D 9.72 
*END

*D_NET *184 0.00157625
*CONN
*I *9170:D I *D sky130_fd_sc_hd__dfrtp_4
*I *9015:X O *D sky130_fd_sc_hd__a22o_1
*CAP
1 *9170:D 0.000633633
2 *9015:X 0.000633633
3 *9170:D *9015:A2 8.8266e-05
4 *9170:D *9015:B1 1.83756e-05
5 *9170:D *9015:B2 2.66586e-05
6 *9170:D *9018:B2 9.80943e-06
7 *9170:D *9170:CLK 0.000111901
8 *9170:D *682:8 0
9 *9170:D *735:198 5.39718e-05
*RES
1 *9015:X *9170:D 16.74 
*END

*D_NET *185 0.00182846
*CONN
*I *9171:D I *D sky130_fd_sc_hd__dfrtp_4
*I *9018:X O *D sky130_fd_sc_hd__a22o_1
*CAP
1 *9171:D 0.00067705
2 *9018:X 0.00067705
3 *9171:D *9014:A 0.000117116
4 *9171:D *9014:B_N 0.000122337
5 *9171:D *9015:B2 2.87867e-05
6 *9171:D *9171:RESET_B 4.2463e-05
7 *9171:D *534:19 4.05358e-05
8 *9171:D *534:34 3.57846e-05
9 *9171:D *683:16 8.73359e-05
*RES
1 *9018:X *9171:D 19.065 
*END

*D_NET *186 0.00286199
*CONN
*I *9172:D I *D sky130_fd_sc_hd__dfrtp_2
*I *9021:X O *D sky130_fd_sc_hd__a22o_1
*CAP
1 *9172:D 0.00078196
2 *9021:X 0.00078196
3 *9172:D *9016:B1_N 3.79945e-05
4 *9172:D *9020:B 0
5 *9172:D *9021:B2 0.000233781
6 *9172:D *9172:CLK 5.85534e-05
7 *9172:D *9172:RESET_B 0.000140968
8 *9172:D *534:8 0.00019637
9 *9172:D *682:34 0.000316415
10 *9172:D *682:38 0
11 *9172:D *684:8 3.02252e-05
12 *9172:D *684:12 1.31519e-05
13 *9172:D *684:51 5.84378e-05
14 *9172:D *716:34 0.000184655
15 *9172:D *735:191 0
16 *9172:D *736:12 2.75145e-05
*RES
1 *9021:X *9172:D 23.52 
*END

*D_NET *187 0.000820218
*CONN
*I *9173:D I *D sky130_fd_sc_hd__dfrtp_1
*I *9023:X O *D sky130_fd_sc_hd__o211a_1
*CAP
1 *9173:D 0.000131416
2 *9023:X 0.000131416
3 *9173:D *9023:A1 8.65961e-05
4 *9173:D *9023:A2 4.10196e-05
5 *9173:D *9023:B1 5.41776e-05
6 *9173:D *9023:C1 4.82919e-05
7 *9173:D *9173:CLK 4.80285e-05
8 *9173:D *677:18 0.000148275
9 *9173:D *677:24 0.000130997
*RES
1 *9023:X *9173:D 7.445 
*END

*D_NET *188 0.00367099
*CONN
*I *8490:A I *D sky130_fd_sc_hd__clkbuf_4
*I *8752:C1 I *D sky130_fd_sc_hd__o311ai_4
*I *8805:B1 I *D sky130_fd_sc_hd__o311a_1
*I *8489:Y O *D sky130_fd_sc_hd__nor2_1
*CAP
1 *8490:A 0.000110689
2 *8752:C1 5.71429e-05
3 *8805:B1 0.000200992
4 *8489:Y 0.000348228
5 *188:25 0.000268576
6 *188:10 0.000649964
7 *8490:A *8590:B1 0.000104382
8 *8752:C1 *8590:C1 0.000139245
9 *8752:C1 *8788:A2 5.10879e-05
10 *8752:C1 *8993:A1 0.000231564
11 *8805:B1 *8590:A1 0.000203755
12 *8805:B1 *8752:B1 0.000195918
13 *8805:B1 *8788:A2 0.000121876
14 *8805:B1 *8993:B1 1.01661e-05
15 *8805:B1 *252:61 4.66108e-05
16 *8805:B1 *261:122 0.000348791
17 *8805:B1 *393:61 0.000155234
18 *188:10 *8489:B 5.83121e-06
19 *188:10 *8592:A1 3.65279e-05
20 *188:10 *8788:A2 5.02217e-05
21 *188:10 *8993:A2 0.000107415
22 *188:10 *8993:B1 0.000155108
23 *188:25 *8590:A3 5.83121e-06
24 *188:25 *8590:B1 6.58339e-05
*RES
1 *8489:Y *188:10 8.625 
2 *188:10 *8805:B1 10.785 
3 *188:10 *188:25 3.485 
4 *188:25 *8752:C1 8.255 
5 *188:25 *8490:A 3.43 
*END

*D_NET *189 0.0163256
*CONN
*I *8676:B I *D sky130_fd_sc_hd__and3_1
*I *8521:B I *D sky130_fd_sc_hd__and3_1
*I *8671:B I *D sky130_fd_sc_hd__and2_1
*I *8533:B1 I *D sky130_fd_sc_hd__o21a_1
*I *8528:C I *D sky130_fd_sc_hd__and4_1
*I *8539:B1 I *D sky130_fd_sc_hd__o21a_1
*I *8491:A I *D sky130_fd_sc_hd__clkbuf_4
*I *8989:C I *D sky130_fd_sc_hd__nand3b_1
*I *8810:B I *D sky130_fd_sc_hd__nand3_2
*I *8804:A I *D sky130_fd_sc_hd__nand4_4
*I *8490:X O *D sky130_fd_sc_hd__clkbuf_4
*CAP
1 *8676:B 0
2 *8521:B 0.000486982
3 *8671:B 0
4 *8533:B1 0.000162698
5 *8528:C 0.000142382
6 *8539:B1 7.08746e-05
7 *8491:A 0
8 *8989:C 0.000104443
9 *8810:B 5.4421e-05
10 *8804:A 9.79893e-06
11 *8490:X 3.69588e-05
12 *189:88 0.000328698
13 *189:86 0.000719683
14 *189:84 0.00101636
15 *189:76 0.00124884
16 *189:74 0.00149143
17 *189:61 0.00145953
18 *189:33 0.000261305
19 *189:20 0.000465577
20 *189:8 0.000545448
21 *8521:B *8518:A2 0.000176266
22 *8521:B *8522:B1 8.65961e-05
23 *8521:B *8523:B1 2.42236e-05
24 *8521:B *8672:A 9.36526e-05
25 *8521:B *9187:A 5.99688e-05
26 *8521:B *195:52 0
27 *8521:B *198:10 4.06585e-05
28 *8521:B *672:27 0
29 *8528:C *8535:A3 9.50342e-06
30 *8528:C *220:35 0.000345684
31 *8528:C *675:29 9.50342e-06
32 *8528:C *675:38 0.00027064
33 *8528:C *675:53 9.30787e-05
34 *8533:B1 *8516:A 0
35 *8533:B1 *8533:A1 0.000163204
36 *8533:B1 *8539:A2 9.54399e-05
37 *8533:B1 *193:48 5.93674e-05
38 *8533:B1 *226:10 0
39 *8533:B1 *673:31 2.7881e-05
40 *8539:B1 *8539:A1 0.000124895
41 *8539:B1 *8539:A2 1.47347e-05
42 *8804:A *8804:B 9.42091e-06
43 *8810:B *8810:A 3.11329e-05
44 *8810:B *8810:C 0
45 *8810:B *430:18 0.00013031
46 *8989:C *8995:B1 1.65192e-05
47 *8989:C *9189:A 6.14776e-05
48 *8989:C *441:37 6.10014e-05
49 *189:8 *8592:A2 4.66108e-05
50 *189:20 *8590:B1 7.30547e-05
51 *189:20 *8804:B 0.000102401
52 *189:20 *8804:D 0
53 *189:20 *8806:C 0.000208234
54 *189:20 *8810:A 0.000222502
55 *189:20 *8994:C 0
56 *189:20 *430:18 0.000194585
57 *189:20 *445:18 4.66108e-05
58 *189:20 *620:58 7.4027e-05
59 *189:20 *620:72 0
60 *189:20 *761:28 9.21275e-05
61 *189:33 *8804:B 5.20897e-05
62 *189:33 *8810:A 0.000133703
63 *189:33 *430:18 0.000292802
64 *189:61 *8590:B1 0.000465812
65 *189:61 *190:12 1.91597e-05
66 *189:61 *761:28 0.000265376
67 *189:74 *8676:C 2.39862e-05
68 *189:74 *8677:A 8.22234e-06
69 *189:74 *9092:CLK 0.000147705
70 *189:74 *9092:SET_B 0.000123806
71 *189:74 *190:12 0.00198428
72 *189:76 *8502:A 2.50702e-05
73 *189:76 *8523:A2 4.41506e-05
74 *189:76 *8676:C 3.85152e-07
75 *189:76 *218:8 2.8585e-06
76 *189:84 *8502:A 7.67415e-06
77 *189:84 *8503:A2 4.29198e-05
78 *189:84 *8523:B1 2.76356e-05
79 *189:84 *8672:A 0.000415929
80 *189:86 *8539:A2 1.83847e-05
81 *189:86 *8671:A 0.000352447
82 *189:88 *8539:A2 9.09288e-05
83 *9178:A *189:61 0.000109539
*RES
1 *8490:X *189:8 4.05 
2 *189:8 *189:20 10.985 
3 *189:20 *8804:A 1.96 
4 *189:20 *189:33 3.675 
5 *189:33 *8810:B 3.46 
6 *189:33 *8989:C 7.49 
7 *189:8 *189:61 7.91 
8 *189:61 *8491:A 1.6 
9 *189:61 *189:74 25.68 
10 *189:74 *189:76 2.175 
11 *189:76 *189:84 7.74 
12 *189:84 *189:86 7.695 
13 *189:86 *189:88 2.175 
14 *189:88 *8539:B1 3.085 
15 *189:88 *8528:C 10.4 
16 *189:86 *8533:B1 9.485 
17 *189:84 *8671:B 1.6 
18 *189:76 *8521:B 12.995 
19 *189:74 *8676:B 1.6 
*END

*D_NET *190 0.020916
*CONN
*I *8986:C1 I *D sky130_fd_sc_hd__o211ai_1
*I *9023:B1 I *D sky130_fd_sc_hd__o211a_1
*I *8675:B1 I *D sky130_fd_sc_hd__o21a_1
*I *8526:A2 I *D sky130_fd_sc_hd__a31o_1
*I *8522:A2 I *D sky130_fd_sc_hd__a31o_1
*I *8498:A2 I *D sky130_fd_sc_hd__a32o_1
*I *8534:A3 I *D sky130_fd_sc_hd__a311o_1
*I *8674:B1 I *D sky130_fd_sc_hd__o2111a_1
*I *8545:B1 I *D sky130_fd_sc_hd__o21a_1
*I *8540:A2 I *D sky130_fd_sc_hd__a21o_1
*I *8491:X O *D sky130_fd_sc_hd__clkbuf_4
*CAP
1 *8986:C1 0.000401859
2 *9023:B1 0.000562736
3 *8675:B1 0.000455251
4 *8526:A2 0.000230005
5 *8522:A2 0.000289073
6 *8498:A2 0.000134772
7 *8534:A3 0.000288658
8 *8674:B1 0
9 *8545:B1 0.000156462
10 *8540:A2 3.15982e-05
11 *8491:X 0
12 *190:105 0.000749244
13 *190:61 0.000338496
14 *190:44 0.00047069
15 *190:42 0.0010031
16 *190:36 0.00092131
17 *190:28 0.000752399
18 *190:26 0.00162049
19 *190:12 0.00262869
20 *190:4 0.00149565
21 *8498:A2 *8530:B 9.37731e-05
22 *8498:A2 *621:23 0.00016784
23 *8498:A2 *621:34 2.92496e-05
24 *8498:A2 *676:14 0
25 *8498:A2 *676:27 0
26 *8522:A2 *8522:B1 0
27 *8522:A2 *8821:B 4.43871e-06
28 *8522:A2 *9093:CLK 0
29 *8522:A2 *201:12 0
30 *8522:A2 *216:22 7.63204e-05
31 *8522:A2 *708:157 0
32 *8526:A2 *8526:B1 0.000162046
33 *8526:A2 *196:14 0.000128793
34 *8534:A3 *8534:B1 0
35 *8534:A3 *8535:A2 0.000139933
36 *8534:A3 *8535:A3 7.81706e-05
37 *8534:A3 *8535:B2 5.4256e-05
38 *8534:A3 *9097:CLK 0
39 *8534:A3 *193:35 5.34525e-05
40 *8534:A3 *193:48 0.000227536
41 *8534:A3 *220:35 0.000291358
42 *8534:A3 *675:29 0
43 *8534:A3 *708:104 0.000123225
44 *8534:A3 *735:155 0
45 *8540:A2 *8540:B1 4.00541e-06
46 *8540:A2 *231:14 9.53428e-06
47 *8545:B1 *8544:A_N 0.000192125
48 *8545:B1 *8545:A1 8.40213e-05
49 *8545:B1 *8545:A2 5.68717e-05
50 *8545:B1 *8673:A 8.73389e-06
51 *8545:B1 *8674:D1 4.82863e-05
52 *8545:B1 *193:81 4.66108e-05
53 *8675:B1 *8520:A1 3.57846e-05
54 *8675:B1 *8531:A_N 8.8266e-05
55 *8675:B1 *8531:B 5.83121e-06
56 *8675:B1 *8537:B 0.000332795
57 *8675:B1 *8538:A2 0
58 *8675:B1 *8675:A1 0.000255316
59 *8675:B1 *8675:A2 1.83847e-05
60 *8675:B1 *223:8 0
61 *8986:C1 *707:134 0
62 *8986:C1 *707:136 0
63 *8986:C1 *759:18 0
64 *9023:B1 *8555:B 0
65 *9023:B1 *9023:A2 3.26889e-05
66 *9023:B1 *9023:C1 3.00381e-05
67 *9023:B1 *9173:CLK 8.49205e-05
68 *9023:B1 *677:14 7.26551e-05
69 *9023:B1 *677:18 2.34158e-05
70 *9023:B1 *735:274 0
71 *190:12 *581:57 3.47668e-05
72 *190:12 *677:14 3.05295e-05
73 *190:12 *735:274 0
74 *190:26 *8537:C 0.000531741
75 *190:26 *9177:CLK 4.82919e-05
76 *190:26 *9187:A 0.000137008
77 *190:26 *671:28 0.000289297
78 *190:26 *671:41 2.76356e-05
79 *190:26 *677:14 2.75145e-05
80 *190:28 *8520:A1 0.000157083
81 *190:36 *8519:A2 5.4155e-06
82 *190:36 *8519:B1_N 0.000111455
83 *190:36 *8520:A2 1.61831e-05
84 *190:36 *8520:C1 6.15767e-05
85 *190:36 *212:6 6.47326e-05
86 *190:42 *8516:A 9.35509e-05
87 *190:42 *8516:B 8.80354e-06
88 *190:42 *8516:C 1.60203e-05
89 *190:42 *8516:D 0.000415325
90 *190:42 *8519:B1_N 4.66108e-05
91 *190:44 *8516:C 8.82557e-05
92 *190:44 *8516:D 0.000118081
93 *190:44 *231:14 2.11084e-05
94 *190:61 *8539:A1 2.23485e-05
95 *190:61 *8545:A2 0.000270633
96 *190:61 *231:14 7.23602e-05
97 *190:61 *674:34 0.000245491
98 *190:61 *674:38 4.20164e-05
99 *190:61 *735:163 4.40358e-05
100 *190:105 *8520:A1 5.53249e-06
101 *190:105 *192:25 9.50115e-05
102 *190:105 *201:12 0
103 *190:105 *676:14 0
104 *190:105 *676:27 0
105 *9092:D *190:26 4.82863e-05
106 *9093:D *8522:A2 4.05358e-05
107 *9173:D *9023:B1 5.41776e-05
108 *9177:D *190:26 3.00381e-05
109 *189:61 *190:12 1.91597e-05
110 *189:74 *190:12 0.00198428
*RES
1 *8491:X *190:4 1.6 
2 *190:4 *190:12 23.075 
3 *190:12 *190:26 18.835 
4 *190:26 *190:28 3.42 
5 *190:28 *190:36 7.055 
6 *190:36 *190:42 6.435 
7 *190:42 *190:44 3.21 
8 *190:44 *8540:A2 2.215 
9 *190:44 *190:61 9.76 
10 *190:61 *8545:B1 5.17 
11 *190:61 *8674:B1 1.6 
12 *190:42 *8534:A3 13.73 
13 *190:36 *8498:A2 8.81 
14 *190:28 *190:105 4.185 
15 *190:105 *8522:A2 8.49 
16 *190:105 *8526:A2 8.22 
17 *190:26 *8675:B1 12.66 
18 *190:12 *9023:B1 11.13 
19 *190:4 *8986:C1 11.645 
*END

*D_NET *191 0.00120753
*CONN
*I *8493:B1 I *D sky130_fd_sc_hd__o311a_1
*I *8531:B I *D sky130_fd_sc_hd__and4b_1
*I *8492:Y O *D sky130_fd_sc_hd__inv_2
*CAP
1 *8493:B1 2.08101e-05
2 *8531:B 9.23012e-05
3 *8492:Y 6.70872e-05
4 *191:6 0.000180198
5 *8493:B1 *677:47 0
6 *8531:B *8493:A2 1.12578e-05
7 *8531:B *8493:A3 3.00381e-05
8 *8531:B *8531:C 0.000348699
9 *8531:B *8531:D 0.000185956
10 *8531:B *8537:B 2.6772e-05
11 *8531:B *8675:A1 8.34281e-06
12 *8531:B *706:43 4.66108e-05
13 *191:6 *8493:A3 5.29938e-05
14 *191:6 *8531:C 8.40213e-05
15 *191:6 *677:47 4.66108e-05
16 *8675:B1 *8531:B 5.83121e-06
*RES
1 *8492:Y *191:6 3.085 
2 *191:6 *8531:B 5.155 
3 *191:6 *8493:B1 1.96 
*END

*D_NET *192 0.0052251
*CONN
*I *8499:D_N I *D sky130_fd_sc_hd__or4b_1
*I *8521:C I *D sky130_fd_sc_hd__and3_1
*I *8498:A3 I *D sky130_fd_sc_hd__a32o_1
*I *8675:A1 I *D sky130_fd_sc_hd__o21a_1
*I *8493:X O *D sky130_fd_sc_hd__o311a_1
*CAP
1 *8499:D_N 2.85626e-05
2 *8521:C 8.72866e-05
3 *8498:A3 0.000432948
4 *8675:A1 0.000230021
5 *8493:X 4.10905e-05
6 *192:25 0.000788933
7 *192:21 0.000393836
8 *192:6 0.000367686
9 *8498:A3 *8498:A1 0.000541113
10 *8498:A3 *8498:B1 4.00541e-06
11 *8498:A3 *196:33 3.93211e-05
12 *8499:D_N *8501:A 0.000120655
13 *8499:D_N *702:82 0.000120655
14 *8521:C *8498:A1 4.66108e-05
15 *8521:C *196:27 2.81446e-06
16 *8521:C *704:79 7.3151e-05
17 *8675:A1 *8537:B 8.65961e-05
18 *192:6 *8537:B 8.65905e-05
19 *192:21 *8532:A2 0.000113797
20 *192:21 *8537:B 5.96857e-05
21 *192:21 *199:14 5.89912e-05
22 *192:21 *704:67 2.77532e-05
23 *192:25 *8503:B1 1.22505e-05
24 *192:25 *8520:A1 0.000374232
25 *192:25 *8537:B 5.73362e-05
26 *192:25 *201:12 0.000355896
27 *192:25 *704:67 0.000126408
28 *192:25 *704:79 0.000188206
29 *8531:B *8675:A1 8.34281e-06
30 *8675:B1 *8675:A1 0.000255316
31 *190:105 *192:25 9.50115e-05
*RES
1 *8493:X *192:6 2.395 
2 *192:6 *8675:A1 5.86 
3 *192:6 *192:21 4.25 
4 *192:21 *192:25 10.52 
5 *192:25 *8498:A3 7.84 
6 *192:25 *8521:C 2.8 
7 *192:21 *8499:D_N 4.74 
*END

*D_NET *193 0.0129607
*CONN
*I *9022:A2 I *D sky130_fd_sc_hd__a21o_1
*I *8525:A2 I *D sky130_fd_sc_hd__a221o_1
*I *8676:C I *D sky130_fd_sc_hd__and3_1
*I *8497:A I *D sky130_fd_sc_hd__nor2_1
*I *8536:C1 I *D sky130_fd_sc_hd__o311a_1
*I *8674:C1 I *D sky130_fd_sc_hd__o2111a_1
*I *8544:A_N I *D sky130_fd_sc_hd__and2b_1
*I *8543:C1 I *D sky130_fd_sc_hd__o211a_1
*I *8528:A I *D sky130_fd_sc_hd__and4_1
*I *8535:A1 I *D sky130_fd_sc_hd__a32o_1
*I *8494:X O *D sky130_fd_sc_hd__buf_2
*CAP
1 *9022:A2 0.000222705
2 *8525:A2 7.18416e-06
3 *8676:C 8.02416e-05
4 *8497:A 2.75505e-05
5 *8536:C1 0
6 *8674:C1 0
7 *8544:A_N 0.000293119
8 *8543:C1 0
9 *8528:A 0.000135082
10 *8535:A1 3.2834e-05
11 *8494:X 0
12 *193:142 0.000292734
13 *193:127 0.000489289
14 *193:112 0.00155298
15 *193:81 0.000561108
16 *193:65 0.000492207
17 *193:48 0.000472227
18 *193:35 0.000530283
19 *193:20 0.000607927
20 *193:4 0.00160713
21 *8497:A *8497:B 8.8266e-05
22 *8497:A *8526:A1 0.000201503
23 *8497:A *195:39 0.000113237
24 *8525:A2 *671:28 1.2818e-05
25 *8528:A *8541:A2 9.53428e-06
26 *8528:A *196:33 0.000229541
27 *8535:A1 *8535:B1 6.9114e-05
28 *8535:A1 *9097:RESET_B 0.000123225
29 *8544:A_N *9175:RESET_B 0.000116853
30 *8544:A_N *735:163 0.000101402
31 *8544:A_N *763:10 0
32 *8676:C *8677:A 4.82863e-05
33 *8676:C *9092:CLK 5.83121e-06
34 *8676:C *218:8 1.23707e-05
35 *9022:A2 *8518:A1 0.00022755
36 *9022:A2 *8523:A2 0
37 *9022:A2 *9022:A1 5.83121e-06
38 *9022:A2 *9022:B1 6.20248e-05
39 *9022:A2 *9023:A1 6.57201e-05
40 *9022:A2 *9023:C1 3.23391e-05
41 *9022:A2 *239:20 0
42 *193:20 *8535:A3 0
43 *193:20 *8535:B1 9.41478e-05
44 *193:20 *9097:RESET_B 0.000166248
45 *193:20 *621:12 5.39961e-05
46 *193:20 *621:23 0.000186099
47 *193:35 *196:33 7.49327e-05
48 *193:48 *220:35 0.000166104
49 *193:48 *226:10 0
50 *193:48 *673:31 5.16418e-05
51 *193:65 *8529:A1 0.000331014
52 *193:65 *8529:A2 1.19928e-05
53 *193:65 *8529:C1 8.7974e-05
54 *193:65 *8536:B1 3.81149e-05
55 *193:65 *8670:A1 0
56 *193:65 *673:31 0.000185398
57 *193:65 *675:62 3.98952e-05
58 *193:65 *675:88 1.53032e-05
59 *193:65 *684:27 9.72742e-06
60 *193:81 *8529:A1 3.77271e-05
61 *193:81 *8529:A3 9.47742e-05
62 *193:81 *8529:B1 2.75229e-05
63 *193:81 *8536:B1 4.66108e-05
64 *193:81 *8539:A1 0
65 *193:81 *8673:A 2.86265e-06
66 *193:81 *8674:A2 2.65239e-05
67 *193:81 *220:31 0.000199032
68 *193:81 *674:38 3.09164e-05
69 *193:112 *8526:A1 0.00011852
70 *193:112 *195:39 2.97004e-06
71 *193:112 *216:22 0.000308724
72 *193:112 *449:20 3.76596e-05
73 *193:112 *672:16 0.000130209
74 *193:127 *8518:A1 0.00013521
75 *193:127 *8525:A1 8.53113e-06
76 *193:127 *8807:A 0
77 *193:127 *195:39 0.000172838
78 *193:127 *195:52 1.67513e-05
79 *193:142 *8518:A1 0.00022282
80 *193:142 *8525:A1 0.000218317
81 *8533:B1 *193:48 5.93674e-05
82 *8534:A3 *193:35 5.34525e-05
83 *8534:A3 *193:48 0.000227536
84 *8545:B1 *8544:A_N 0.000192125
85 *8545:B1 *193:81 4.66108e-05
86 *9094:D *8544:A_N 0
87 *9097:D *193:20 7.60965e-05
88 *189:74 *8676:C 2.39862e-05
89 *189:76 *8676:C 3.85152e-07
*RES
1 *8494:X *193:4 1.6 
2 *193:4 *193:20 13.03 
3 *193:20 *8535:A1 2.74 
4 *193:20 *193:35 6.685 
5 *193:35 *8528:A 4.135 
6 *193:35 *193:48 8.225 
7 *193:48 *8543:C1 3.6 
8 *193:48 *193:65 8.39 
9 *193:65 *193:81 9.505 
10 *193:81 *8544:A_N 10.85 
11 *193:81 *8674:C1 1.6 
12 *193:65 *8536:C1 1.6 
13 *193:4 *193:112 17.195 
14 *193:112 *8497:A 5.43 
15 *193:112 *193:127 6.615 
16 *193:127 *8676:C 5.12625 
17 *193:127 *193:142 2.655 
18 *193:142 *8525:A2 3.72375 
19 *193:142 *9022:A2 8.34 
*END

*D_NET *194 0.000171662
*CONN
*I *8496:A I *D sky130_fd_sc_hd__clkbuf_2
*I *8495:X O *D sky130_fd_sc_hd__or2_1
*CAP
1 *8496:A 1.8765e-05
2 *8495:X 1.8765e-05
3 *8496:A *8495:A 4.88478e-05
4 *8496:A *581:38 8.52845e-05
*RES
1 *8495:X *8496:A 3.995 
*END

*D_NET *195 0.0105492
*CONN
*I *8525:C1 I *D sky130_fd_sc_hd__a221o_1
*I *8503:B1 I *D sky130_fd_sc_hd__a21oi_1
*I *8497:B I *D sky130_fd_sc_hd__nor2_1
*I *8788:A2 I *D sky130_fd_sc_hd__o22ai_4
*I *8496:X O *D sky130_fd_sc_hd__clkbuf_2
*CAP
1 *8525:C1 6.98211e-05
2 *8503:B1 0.00063412
3 *8497:B 8.91578e-05
4 *8788:A2 0.000398803
5 *8496:X 0.000431212
6 *195:52 0.00104289
7 *195:39 0.00173598
8 *195:10 0.00213789
9 *8497:B *8526:A1 4.60584e-05
10 *8497:B *672:16 3.26889e-05
11 *8503:B1 *8672:A 2.75145e-05
12 *8503:B1 *9023:A2 0
13 *8503:B1 *199:14 0
14 *8503:B1 *201:12 2.75229e-05
15 *8503:B1 *704:79 1.79483e-05
16 *8525:C1 *8523:A2 0.00018305
17 *8525:C1 *8525:A1 0
18 *8525:C1 *9187:A 0.000181204
19 *8525:C1 *198:10 1.26626e-05
20 *8788:A2 *8590:C1 0.000139245
21 *8788:A2 *8592:A1 0
22 *8788:A2 *8752:B1 0.000116158
23 *8788:A2 *8993:A1 7.38021e-05
24 *8788:A2 *8994:C 0
25 *8788:A2 *270:10 0
26 *8788:A2 *620:72 0.000178651
27 *8788:A2 *620:80 2.15271e-05
28 *195:10 *8994:C 0
29 *195:10 *707:151 0.000502115
30 *195:39 *8526:A1 1.91597e-05
31 *195:39 *8592:A1 0.000346503
32 *195:39 *8592:A2 0.000612259
33 *195:39 *8672:A 0.000113247
34 *195:39 *8807:A 0
35 *195:39 *8807:C 3.95724e-05
36 *195:39 *8993:A2 0.000132261
37 *195:39 *9001:C1 0.000275285
38 *195:39 *239:50 6.60042e-05
39 *195:52 *9187:A 0.000169195
40 *195:52 *672:27 0
41 *8497:A *8497:B 8.8266e-05
42 *8497:A *195:39 0.000113237
43 *8521:B *195:52 0
44 *8752:C1 *8788:A2 5.10879e-05
45 *8805:B1 *8788:A2 0.000121876
46 *9176:D *195:39 4.61744e-05
47 *188:10 *8788:A2 5.02217e-05
48 *192:25 *8503:B1 1.22505e-05
49 *193:112 *195:39 2.97004e-06
50 *193:127 *195:39 0.000172838
51 *193:127 *195:52 1.67513e-05
*RES
1 *8496:X *195:10 9.57 
2 *195:10 *8788:A2 11.76 
3 *195:10 *195:39 31.065 
4 *195:39 *8497:B 3.445 
5 *195:39 *195:52 7.5875 
6 *195:52 *8503:B1 6.13623 
7 *195:52 *8525:C1 6.1275 
*END

*D_NET *196 0.00436662
*CONN
*I *8498:B1 I *D sky130_fd_sc_hd__a32o_1
*I *8541:A2 I *D sky130_fd_sc_hd__a21o_1
*I *8542:A2 I *D sky130_fd_sc_hd__a21o_1
*I *8504:A2 I *D sky130_fd_sc_hd__a21o_1
*I *8497:Y O *D sky130_fd_sc_hd__nor2_1
*CAP
1 *8498:B1 1.43429e-05
2 *8541:A2 0.000151472
3 *8542:A2 0
4 *8504:A2 0
5 *8497:Y 0.000248907
6 *196:33 0.000570285
7 *196:27 0.000806358
8 *196:14 0.000622109
9 *8498:B1 *8498:A1 2.24829e-05
10 *8541:A2 *8542:B1 7.70985e-05
11 *196:14 *8522:B1 2.97561e-05
12 *196:14 *8526:A1 7.22354e-05
13 *196:14 *8526:B1 9.27255e-06
14 *196:14 *216:22 1.94892e-05
15 *196:27 *8498:A1 0.000301785
16 *196:27 *8522:B1 0.0001576
17 *196:27 *216:10 6.74403e-05
18 *196:27 *216:22 4.18603e-06
19 *196:27 *704:79 7.7599e-05
20 *196:33 *8498:A1 2.30292e-05
21 *196:33 *8542:B1 0.000503643
22 *8498:A3 *8498:B1 4.00541e-06
23 *8498:A3 *196:33 3.93211e-05
24 *8521:C *196:27 2.81446e-06
25 *8526:A2 *196:14 0.000128793
26 *8528:A *8541:A2 9.53428e-06
27 *8528:A *196:33 0.000229541
28 *9095:D *8541:A2 2.75229e-05
29 *9097:D *196:33 7.10578e-05
30 *193:35 *196:33 7.49327e-05
*RES
1 *8497:Y *196:14 7.545 
2 *196:14 *8504:A2 3.6 
3 *196:14 *196:27 10.115 
4 *196:27 *196:33 9.54 
5 *196:33 *8542:A2 1.6 
6 *196:33 *8541:A2 4.495 
7 *196:27 *8498:B1 2.1625 
*END

*D_NET *197 0.00129059
*CONN
*I *8503:A1 I *D sky130_fd_sc_hd__a21oi_1
*I *8499:X O *D sky130_fd_sc_hd__or4b_1
*CAP
1 *8503:A1 0.000410288
2 *8499:X 0.000410288
3 *8503:A1 *8499:A 3.03775e-05
4 *8503:A1 *8502:A 4.82863e-05
5 *8503:A1 *8502:B 8.95174e-05
6 *8503:A1 *8503:A2 6.52265e-05
7 *8503:A1 *8518:A2 5.57799e-05
8 *8503:A1 *8523:B1 2.25119e-05
9 *8503:A1 *8672:A 5.87883e-05
10 *8503:A1 *213:14 2.88436e-05
11 *8503:A1 *671:71 7.06865e-05
*RES
1 *8499:X *8503:A1 14.37 
*END

*D_NET *198 0.00445693
*CONN
*I *8952:A1 I *D sky130_fd_sc_hd__a21boi_1
*I *8523:A1 I *D sky130_fd_sc_hd__a21o_1
*I *8502:A I *D sky130_fd_sc_hd__or2_1
*I *8500:Y O *D sky130_fd_sc_hd__inv_2
*CAP
1 *8952:A1 0.000632241
2 *8523:A1 0
3 *8502:A 0.000101913
4 *8500:Y 0
5 *198:10 0.000626634
6 *198:6 0.00115696
7 *8502:A *8503:A2 8.57024e-05
8 *8502:A *8523:A2 9.03508e-06
9 *8502:A *8523:B1 8.23457e-05
10 *8502:A *218:8 0.000162941
11 *8952:A1 *9023:A1 0
12 *8952:A1 *9110:CLK 8.65905e-05
13 *8952:A1 *704:10 0.000135304
14 *198:10 *8493:A3 0.000183043
15 *198:10 *8499:A 8.26536e-05
16 *198:10 *8518:A2 2.88519e-05
17 *198:10 *8523:A2 4.5867e-05
18 *198:10 *8525:B1 4.05358e-05
19 *198:10 *9022:A1 8.08153e-06
20 *198:10 *9023:A1 0
21 *198:10 *9023:A2 1.79536e-05
22 *198:10 *9187:A 0.000181691
23 *198:10 *213:12 1.59966e-05
24 *198:10 *213:14 6.29952e-05
25 *198:10 *677:47 0.000162318
26 *198:10 *704:10 4.03082e-05
27 *198:10 *705:18 0.000335865
28 *8503:A1 *8502:A 4.82863e-05
29 *8521:B *198:10 4.06585e-05
30 *8525:C1 *198:10 1.26626e-05
31 *9110:D *8952:A1 3.09179e-05
32 *9111:D *8952:A1 5.83121e-06
33 *189:76 *8502:A 2.50702e-05
34 *189:84 *8502:A 7.67415e-06
*RES
1 *8500:Y *198:6 3.6 
2 *198:6 *198:10 15.11 
3 *198:10 *8502:A 4.48 
4 *198:10 *8523:A1 1.6 
5 *198:6 *8952:A1 12.135 
*END

*D_NET *199 0.00275994
*CONN
*I *9023:A2 I *D sky130_fd_sc_hd__o211a_1
*I *8502:B I *D sky130_fd_sc_hd__or2_1
*I *8501:Y O *D sky130_fd_sc_hd__nand2_1
*CAP
1 *9023:A2 0.00050224
2 *8502:B 0.000225612
3 *8501:Y 0.000293509
4 *199:14 0.00102136
5 *8502:B *8672:A 7.19352e-05
6 *8502:B *671:71 0
7 *8502:B *704:67 0
8 *8502:B *704:79 3.45481e-05
9 *8502:B *716:10 6.1265e-05
10 *9023:A2 *8524:A 1.83847e-05
11 *9023:A2 *9023:A1 8.8266e-05
12 *9023:A2 *213:12 8.41703e-06
13 *9023:A2 *213:14 3.59531e-06
14 *9023:A2 *673:93 8.73389e-06
15 *9023:A2 *677:24 2.59835e-05
16 *199:14 *8532:A2 4.66108e-05
17 *199:14 *8537:B 6.26955e-05
18 *199:14 *673:78 4.66108e-05
19 *8503:A1 *8502:B 8.95174e-05
20 *8503:B1 *9023:A2 0
21 *8503:B1 *199:14 0
22 *9023:B1 *9023:A2 3.26889e-05
23 *9173:D *9023:A2 4.10196e-05
24 *192:21 *199:14 5.89912e-05
25 *198:10 *9023:A2 1.79536e-05
*RES
1 *8501:Y *199:14 5.6801 
2 *199:14 *8502:B 8.4125 
3 *199:14 *9023:A2 8.06163 
*END

*D_NET *200 0.000349061
*CONN
*I *8503:A2 I *D sky130_fd_sc_hd__a21oi_1
*I *8502:X O *D sky130_fd_sc_hd__or2_1
*CAP
1 *8503:A2 5.4269e-05
2 *8502:X 5.4269e-05
3 *8503:A2 *8672:A 4.66742e-05
4 *8502:A *8503:A2 8.57024e-05
5 *8503:A1 *8503:A2 6.52265e-05
6 *189:84 *8503:A2 4.29198e-05
*RES
1 *8502:X *8503:A2 5.03 
*END

*D_NET *201 0.0019586
*CONN
*I *8526:B1 I *D sky130_fd_sc_hd__a31o_1
*I *8504:B1 I *D sky130_fd_sc_hd__a21o_1
*I *8503:Y O *D sky130_fd_sc_hd__a21oi_1
*CAP
1 *8526:B1 0.000130309
2 *8504:B1 0
3 *8503:Y 0.000230573
4 *201:12 0.000360882
5 *8526:B1 *8504:A1 0.000198051
6 *8526:B1 *8526:A1 3.00381e-05
7 *8526:B1 *672:16 0.000109297
8 *201:12 *8522:B1 0.000203074
9 *201:12 *8672:A 8.69301e-07
10 *201:12 *704:79 0.000140771
11 *8503:B1 *201:12 2.75229e-05
12 *8522:A2 *201:12 0
13 *8526:A2 *8526:B1 0.000162046
14 *190:105 *201:12 0
15 *192:25 *201:12 0.000355896
16 *196:14 *8526:B1 9.27255e-06
*RES
1 *8503:Y *201:12 11.5325 
2 *201:12 *8504:B1 1.6 
3 *201:12 *8526:B1 5.53 
*END

*D_NET *202 0.00110122
*CONN
*I *8509:A_N I *D sky130_fd_sc_hd__nand4b_4
*I *8505:X O *D sky130_fd_sc_hd__or3_1
*CAP
1 *8509:A_N 0.000183164
2 *8505:X 0.000183164
3 *8509:A_N *8506:D 0.000492013
4 *8509:A_N *8857:A1 0.000196267
5 *8509:A_N *206:8 4.66108e-05
*RES
1 *8505:X *8509:A_N 13.365 
*END

*D_NET *203 0.000786987
*CONN
*I *8509:B I *D sky130_fd_sc_hd__nand4b_4
*I *8506:Y O *D sky130_fd_sc_hd__nor4_1
*CAP
1 *8509:B 0.000272132
2 *8506:Y 0.000272132
3 *8509:B *8506:C 8.41342e-05
4 *8509:B *8506:D 2.75229e-05
5 *8509:B *8857:A1 6.55328e-05
6 *8509:B *477:12 6.55328e-05
*RES
1 *8506:Y *8509:B 11.445 
*END

*D_NET *204 0.00385664
*CONN
*I *8856:A1 I *D sky130_fd_sc_hd__a211o_1
*I *8866:A1 I *D sky130_fd_sc_hd__a32o_1
*I *8870:A I *D sky130_fd_sc_hd__nand3_1
*I *8858:A I *D sky130_fd_sc_hd__nand2_1
*I *8509:C I *D sky130_fd_sc_hd__nand4b_4
*I *8507:Y O *D sky130_fd_sc_hd__nor4_4
*CAP
1 *8856:A1 2.31723e-05
2 *8866:A1 5.92944e-05
3 *8870:A 2.18816e-05
4 *8858:A 4.68269e-05
5 *8509:C 0.000101957
6 *8507:Y 0.000142165
7 *204:24 0.000218288
8 *204:20 0.000204936
9 *204:18 0.000451142
10 *204:10 0.000443634
11 *8509:C *8506:C 0.000227898
12 *8509:C *8870:B 6.94102e-05
13 *8509:C *464:70 4.76263e-05
14 *8509:C *577:26 2.75229e-05
15 *8858:A *8506:C 5.83121e-06
16 *8858:A *8858:B 4.66108e-05
17 *8858:A *464:72 3.57349e-05
18 *8866:A1 *8866:A3 1.67131e-05
19 *8866:A1 *8866:B1 9.68044e-06
20 *8866:A1 *8866:B2 1.37328e-05
21 *8866:A1 *8867:A0 1.4389e-05
22 *8866:A1 *712:71 4.87465e-06
23 *8870:A *8854:A1 2.88679e-05
24 *8870:A *8870:B 8.7152e-06
25 *8870:A *464:70 2.09648e-05
26 *204:10 *8507:C 0.00010818
27 *204:10 *8507:D 4.99619e-05
28 *204:10 *8845:C 2.23485e-05
29 *204:10 *8854:A2 0.000198945
30 *204:10 *8857:B1 0
31 *204:10 *464:55 0
32 *204:10 *735:1416 9.45784e-05
33 *204:18 *8845:C 5.06699e-05
34 *204:18 *8861:A 0
35 *204:18 *8866:B2 0
36 *204:18 *8868:A 7.4027e-05
37 *204:18 *9054:RESET_B 1.14361e-05
38 *204:18 *211:26 0.000605074
39 *204:18 *735:1416 0.000202993
40 *204:20 *8866:A3 6.00201e-05
41 *204:20 *8867:A0 1.17409e-05
42 *204:24 *8866:A3 2.8185e-05
43 *59:18 *8856:A1 4.66108e-05
*RES
1 *8507:Y *204:10 7.575 
2 *204:10 *204:18 10.31 
3 *204:18 *204:20 1.83 
4 *204:20 *204:24 1.155 
5 *204:24 *8509:C 8.645 
6 *204:24 *8858:A 2.755 
7 *204:20 *8870:A 6.215 
8 *204:18 *8866:A1 2.92 
9 *204:10 *8856:A1 4.05 
*END

*D_NET *205 0.00270689
*CONN
*I *8509:D I *D sky130_fd_sc_hd__nand4b_4
*I *8870:B I *D sky130_fd_sc_hd__nand3_1
*I *8866:A2 I *D sky130_fd_sc_hd__a32o_1
*I *8508:Y O *D sky130_fd_sc_hd__nor3_2
*CAP
1 *8509:D 0
2 *8870:B 0.00012918
3 *8866:A2 5.06182e-05
4 *8508:Y 0.000169179
5 *205:12 0.000348978
6 *8866:A2 *8867:A1 9.82856e-06
7 *8866:A2 *8868:A 9.33998e-05
8 *8866:A2 *211:26 9.44182e-05
9 *8866:A2 *638:14 2.92496e-05
10 *8866:A2 *712:71 8.71796e-06
11 *8870:B *8506:C 0.000192125
12 *8870:B *8854:A1 1.01869e-05
13 *8870:B *8867:S 7.14699e-05
14 *8870:B *8869:B1 4.66108e-05
15 *8870:B *211:18 8.40213e-05
16 *8870:B *464:70 2.73058e-05
17 *8870:B *486:10 0.000116158
18 *8870:B *577:26 3.96737e-05
19 *205:12 *8508:C 0.000155234
20 *205:12 *8867:S 0.00026617
21 *205:12 *8869:B1 0.000405053
22 *205:12 *8872:B 0.000136182
23 *205:12 *577:26 0.000120433
24 *205:12 *735:1452 7.21296e-06
25 *8509:C *8870:B 6.94102e-05
26 *8860:S *205:12 1.73592e-05
27 *8870:A *8870:B 8.7152e-06
*RES
1 *8508:Y *205:12 11.645 
2 *205:12 *8866:A2 7.235 
3 *205:12 *8870:B 9.665 
4 *205:12 *8509:D 1.6 
*END

*D_NET *206 0.00507371
*CONN
*I *8864:A3 I *D sky130_fd_sc_hd__o311a_1
*I *8887:A2 I *D sky130_fd_sc_hd__o21a_1
*I *8888:C I *D sky130_fd_sc_hd__nor3_1
*I *8884:A2 I *D sky130_fd_sc_hd__o21ai_1
*I *8891:A3 I *D sky130_fd_sc_hd__o311a_1
*I *8513:A3 I *D sky130_fd_sc_hd__o31a_1
*I *8509:Y O *D sky130_fd_sc_hd__nand4b_4
*CAP
1 *8864:A3 0
2 *8887:A2 0.000213022
3 *8888:C 0
4 *8884:A2 0
5 *8891:A3 0.000174316
6 *8513:A3 0
7 *8509:Y 0.000129777
8 *206:70 0.00030913
9 *206:39 0.000430573
10 *206:22 0.00036241
11 *206:16 0.000174275
12 *206:8 0.000294007
13 *8887:A2 *8864:A1 1.61831e-05
14 *8887:A2 *8864:A2 8.73389e-06
15 *8887:A2 *8865:A2_N 2.86265e-06
16 *8887:A2 *8887:A1 0.000163199
17 *8891:A3 *8846:A1 0.000293719
18 *8891:A3 *8884:A1 0.000325771
19 *206:8 *8865:A1_N 0.000123574
20 *206:8 *8865:B1 0.000100842
21 *206:8 *577:26 0.000461047
22 *206:16 *8865:B1 0.000158594
23 *206:16 *8888:A 8.04449e-05
24 *206:16 *577:26 1.33285e-05
25 *206:22 *8513:A2 0.000136884
26 *206:22 *8865:B1 4.60584e-05
27 *206:22 *8888:A 8.65961e-05
28 *206:22 *8890:A3 7.81876e-05
29 *206:22 *8891:C1 0
30 *206:22 *210:16 2.97004e-06
31 *206:22 *385:103 2.97004e-06
32 *206:22 *385:118 1.95461e-05
33 *206:22 *628:25 3.09164e-05
34 *206:39 *8879:B 3.7712e-05
35 *206:39 *8880:B2 4.99619e-05
36 *206:39 *8889:A 6.35622e-05
37 *206:39 *8890:A3 0.000113964
38 *206:39 *210:16 3.54201e-05
39 *206:39 *210:24 8.23457e-05
40 *206:39 *463:12 3.39069e-05
41 *206:70 *8864:B1 0.000183443
42 *206:70 *8864:C1 0
43 *206:70 *745:61 2.68721e-05
44 *8509:A_N *206:8 4.66108e-05
45 *9053:D *206:70 0.00015997
*RES
1 *8509:Y *206:8 6.205 
2 *206:8 *206:16 2.31 
3 *206:16 *206:22 5.195 
4 *206:22 *8513:A3 3.6 
5 *206:22 *206:39 7.97 
6 *206:39 *8891:A3 10.16 
7 *206:39 *8884:A2 1.6 
8 *206:16 *8888:C 1.6 
9 *206:8 *206:70 6.85 
10 *206:70 *8887:A2 4.48 
11 *206:70 *8864:A3 1.6 
*END

*D_NET *207 0.000811239
*CONN
*I *8512:A2 I *D sky130_fd_sc_hd__o211a_1
*I *8510:Y O *D sky130_fd_sc_hd__nand2_1
*CAP
1 *8512:A2 0.00013551
2 *8510:Y 0.00013551
3 *8512:A2 *208:88 9.42224e-05
4 *8512:A2 *665:10 9.50342e-06
5 *8512:A2 *665:12 0.000286642
6 *8512:A2 *665:18 8.53113e-06
7 *8512:A2 *745:59 2.75229e-05
8 *9140:D *8512:A2 0.000113797
*RES
1 *8510:Y *8512:A2 11.07 
*END

*D_NET *208 0.0253453
*CONN
*I *8922:D I *D sky130_fd_sc_hd__and4_1
*I *8553:A I *D sky130_fd_sc_hd__clkbuf_4
*I *8608:A I *D sky130_fd_sc_hd__and2_1
*I *8512:B1 I *D sky130_fd_sc_hd__o211a_1
*I *8546:A I *D sky130_fd_sc_hd__clkbuf_4
*I *8895:D I *D sky130_fd_sc_hd__and4_1
*I *8937:D I *D sky130_fd_sc_hd__and4_1
*I *8967:B1 I *D sky130_fd_sc_hd__o21a_1
*I *8511:Y O *D sky130_fd_sc_hd__inv_2
*CAP
1 *8922:D 0.000405482
2 *8553:A 0
3 *8608:A 0.0011061
4 *8512:B1 3.53842e-05
5 *8546:A 0
6 *8895:D 1.93203e-05
7 *8937:D 0.000388731
8 *8967:B1 0.000269181
9 *8511:Y 0
10 *208:88 0.00148447
11 *208:73 0.00402066
12 *208:63 0.00401829
13 *208:55 0.000988286
14 *208:42 0.000563047
15 *208:23 0.00111731
16 *208:6 0.000696225
17 *8512:B1 *8512:C1 3.04064e-05
18 *8512:B1 *577:26 4.66108e-05
19 *8608:A *8512:C1 2.16917e-05
20 *8608:A *8748:A1 0.000278203
21 *8608:A *8838:A1 7.28749e-05
22 *8608:A *8865:B1 8.45369e-05
23 *8608:A *9004:A2 0.000124102
24 *8608:A *9006:A2 2.75145e-05
25 *8608:A *9006:B1 1.82559e-05
26 *8608:A *9007:B1 4.30213e-05
27 *8608:A *9008:A1 0
28 *8608:A *9009:B1 0.000750093
29 *8608:A *9060:CLK 0
30 *8608:A *237:71 0.000137825
31 *8608:A *237:82 0.00051037
32 *8608:A *237:95 0.000361773
33 *8608:A *237:107 2.03356e-05
34 *8608:A *577:26 0.000268734
35 *8608:A *614:56 0.000234674
36 *8608:A *645:10 8.53113e-06
37 *8608:A *645:12 7.23533e-05
38 *8608:A *707:35 0.000290668
39 *8922:D *8715:B 0.00034189
40 *8922:D *8925:A2 2.13396e-05
41 *8922:D *8925:A3 0.000129241
42 *8922:D *8950:A1 0
43 *8922:D *239:88 0.000170285
44 *8922:D *239:103 0.000195808
45 *8922:D *383:73 0.000141874
46 *8922:D *383:84 8.65961e-05
47 *8922:D *707:88 0.000139238
48 *8937:D *8936:B1 0
49 *8937:D *8937:A 0.000147586
50 *8937:D *8938:A 0.000139245
51 *8937:D *527:90 0.00015997
52 *8937:D *735:859 7.38973e-05
53 *8937:D *735:861 5.06911e-05
54 *8967:B1 *8953:B2 0
55 *8967:B1 *8963:A 7.16181e-05
56 *8967:B1 *8967:A1 0.00012657
57 *8967:B1 *8968:A 0.00011737
58 *8967:B1 *742:20 0
59 *8967:B1 *742:37 5.02905e-05
60 *208:23 *8936:B1 0
61 *208:23 *8966:A0 0
62 *208:23 *9123:RESET_B 7.89689e-05
63 *208:23 *236:25 0
64 *208:23 *534:44 0
65 *208:23 *693:21 3.85884e-05
66 *208:23 *700:8 0
67 *208:23 *735:861 9.67927e-05
68 *208:23 *742:37 4.91469e-05
69 *208:42 *8693:C1 0.000347799
70 *208:42 *8895:C 0.000158066
71 *208:42 *502:14 0.000174604
72 *208:42 *502:25 9.2741e-05
73 *208:55 *8693:C1 0.000235231
74 *208:55 *8896:A 2.75145e-05
75 *208:55 *8925:A3 4.82863e-05
76 *208:55 *502:25 0.000104459
77 *208:55 *505:22 0.000457702
78 *208:63 *8897:B1 7.76666e-05
79 *208:63 *8925:A3 3.83194e-05
80 *208:63 *9099:CLK 0.000176967
81 *208:63 *239:88 0.000822701
82 *208:63 *723:14 0.000129735
83 *208:63 *723:16 0.000327216
84 *208:73 *8722:B2 0
85 *208:73 *8897:B1 6.16226e-06
86 *208:73 *9079:D 4.03791e-05
87 *208:73 *239:88 2.05641e-05
88 *208:73 *572:20 0
89 *208:73 *639:14 5.33085e-05
90 *208:73 *665:18 6.42103e-05
91 *208:73 *742:58 0
92 *208:73 *745:42 0.000217507
93 *208:73 *760:24 7.71476e-05
94 *208:88 *237:71 2.97004e-06
95 *208:88 *639:14 0.000129735
96 *208:88 *665:18 3.73665e-05
97 *208:88 *745:42 0.000159957
98 *8512:A2 *208:88 9.42224e-05
99 *9061:D *8608:A 0.000136182
100 *9072:D *208:55 9.27255e-06
101 *9140:D *208:88 0.00013521
*RES
1 *8511:Y *208:6 3.6 
2 *208:6 *8967:B1 9.54 
3 *208:6 *208:23 7.95 
4 *208:23 *8937:D 10.815 
5 *208:23 *208:42 9.8 
6 *208:42 *8895:D 1.96 
7 *208:42 *208:55 7.125 
8 *208:55 *208:63 12.95 
9 *208:63 *208:73 9.79947 
10 *208:73 *8546:A 3.6 
11 *208:73 *208:88 9.125 
12 *208:88 *8512:B1 2.41 
13 *208:88 *8608:A 36.5 
14 *208:63 *8553:A 3.6 
15 *208:55 *8922:D 15.29 
*END

*D_NET *209 0.00495569
*CONN
*I *8864:B1 I *D sky130_fd_sc_hd__o311a_1
*I *8513:B1 I *D sky130_fd_sc_hd__o31a_1
*I *8891:B1 I *D sky130_fd_sc_hd__o311a_1
*I *8512:X O *D sky130_fd_sc_hd__o211a_1
*CAP
1 *8864:B1 0.000282281
2 *8513:B1 0
3 *8891:B1 2.9682e-05
4 *8512:X 0.00092423
5 *209:25 0.000561696
6 *209:14 0.00123333
7 *8864:B1 *8864:C1 0
8 *8864:B1 *8865:A2_N 2.49909e-05
9 *8864:B1 *385:118 3.03684e-05
10 *8864:B1 *745:61 0.000351152
11 *8891:B1 *210:16 1.37328e-05
12 *209:14 *8892:B1 0.000307043
13 *209:14 *9008:A1 0.000183043
14 *209:14 *385:118 1.06116e-05
15 *209:14 *577:26 0.000678043
16 *209:14 *712:25 6.95418e-05
17 *209:25 *8513:A1 2.7677e-05
18 *209:25 *210:16 2.75145e-05
19 *209:25 *385:118 1.73097e-05
20 *206:70 *8864:B1 0.000183443
*RES
1 *8512:X *209:14 18.65 
2 *209:14 *8891:B1 2.215 
3 *209:14 *209:25 3.48 
4 *209:25 *8513:B1 1.6 
5 *209:25 *8864:B1 11.72 
*END

*D_NET *210 0.00271893
*CONN
*I *8514:A I *D sky130_fd_sc_hd__inv_2
*I *8839:A I *D sky130_fd_sc_hd__buf_2
*I *8889:B I *D sky130_fd_sc_hd__or2_1
*I *8879:B I *D sky130_fd_sc_hd__nand2_1
*I *8884:B1 I *D sky130_fd_sc_hd__o21ai_1
*I *8513:X O *D sky130_fd_sc_hd__o31a_1
*CAP
1 *8514:A 7.77784e-05
2 *8839:A 0
3 *8889:B 2.22796e-05
4 *8879:B 0.000173945
5 *8884:B1 0
6 *8513:X 0.000166638
7 *210:53 0.000291304
8 *210:40 0.000235805
9 *210:24 0.000340207
10 *210:16 0.0003329
11 *8514:A *8890:A3 5.83121e-06
12 *8514:A *463:12 4.66108e-05
13 *8514:A *463:70 8.65961e-05
14 *8879:B *8880:B2 0.000272984
15 *8889:B *8890:B1 4.66108e-05
16 *210:16 *8513:A1 3.54536e-05
17 *210:16 *8846:A1 1.46498e-05
18 *210:16 *8889:A 8.53113e-06
19 *210:16 *8891:C1 5.53249e-06
20 *210:24 *8846:A1 0.000113199
21 *210:24 *8886:B1 4.9968e-05
22 *210:24 *8889:A 7.63476e-05
23 *210:53 *8890:A3 2.97473e-05
24 *210:53 *8890:B1 6.77501e-05
25 *210:53 *463:6 1.85674e-05
26 *8891:B1 *210:16 1.37328e-05
27 *206:22 *210:16 2.97004e-06
28 *206:39 *8879:B 3.7712e-05
29 *206:39 *210:16 3.54201e-05
30 *206:39 *210:24 8.23457e-05
31 *209:25 *210:16 2.75145e-05
*RES
1 *8513:X *210:16 6.6 
2 *210:16 *210:24 5.645 
3 *210:24 *8884:B1 1.6 
4 *210:24 *8879:B 5.17 
5 *210:16 *210:40 2 
6 *210:40 *8889:B 2.05 
7 *210:40 *210:53 3.15 
8 *210:53 *8839:A 1.6 
9 *210:53 *8514:A 3.085 
*END

*D_NET *211 0.0125457
*CONN
*I *8872:A I *D sky130_fd_sc_hd__or3b_1
*I *8875:S I *D sky130_fd_sc_hd__mux2_1
*I *8867:S I *D sky130_fd_sc_hd__mux2_1
*I *8853:C I *D sky130_fd_sc_hd__or3_1
*I *8515:A I *D sky130_fd_sc_hd__clkbuf_4
*I *8845:C I *D sky130_fd_sc_hd__or3_1
*I *8514:Y O *D sky130_fd_sc_hd__inv_2
*CAP
1 *8872:A 9.49965e-05
2 *8875:S 0.000167775
3 *8867:S 8.23357e-05
4 *8853:C 0.000271772
5 *8515:A 0
6 *8845:C 0.000637086
7 *8514:Y 0.000351442
8 *211:92 0.00064438
9 *211:53 0.000452968
10 *211:26 0.00111152
11 *211:18 0.000486896
12 *211:12 0.000844375
13 *8845:C *8856:A2 0.000238137
14 *8845:C *385:40 5.4155e-06
15 *8845:C *464:70 0
16 *8845:C *623:38 0.000134471
17 *8845:C *623:81 0.000271314
18 *8853:C *8854:A1 0.000107241
19 *8853:C *8854:A2 3.00381e-05
20 *8853:C *8854:B1 8.31072e-05
21 *8853:C *8856:C1 2.96334e-05
22 *8853:C *473:12 2.96334e-05
23 *8853:C *735:1416 0
24 *8867:S *577:26 0.000340209
25 *8872:A *8872:C_N 6.93175e-05
26 *8872:A *8876:A 1.37328e-05
27 *8872:A *487:28 0
28 *8872:A *624:16 9.55119e-05
29 *8875:S *8860:A1 0.000489651
30 *8875:S *8875:A0 0.000186101
31 *211:12 *8863:A1 0
32 *211:12 *8863:A2 5.36849e-05
33 *211:12 *8864:C1 0.000399198
34 *211:12 *463:70 0.000239807
35 *211:18 *8854:A1 0.00031041
36 *211:18 *486:10 0.000312077
37 *211:18 *577:26 8.23457e-05
38 *211:26 *8854:A1 0.000710361
39 *211:26 *8868:A 4.17819e-05
40 *211:26 *464:70 0
41 *211:26 *638:14 4.9968e-05
42 *211:92 *8854:A1 0.000446541
43 *211:92 *8872:C_N 0.000176533
44 *211:92 *8875:A0 8.8266e-05
45 *211:92 *8877:A3 4.50017e-05
46 *211:92 *486:10 0.000352768
47 *211:92 *487:10 0.000158072
48 *211:92 *487:28 9.61248e-05
49 *8866:A2 *211:26 9.44182e-05
50 *8870:B *8867:S 7.14699e-05
51 *8870:B *211:18 8.40213e-05
52 *9056:D *8872:A 1.24244e-05
53 *59:16 *8853:C 0.000140113
54 *59:16 *211:53 0.000111257
55 *59:18 *8845:C 1.19928e-05
56 *59:18 *211:53 0.000122331
57 *59:39 *8845:C 0.000121464
58 *204:10 *8845:C 2.23485e-05
59 *204:18 *8845:C 5.06699e-05
60 *204:18 *211:26 0.000605074
61 *205:12 *8867:S 0.00026617
*RES
1 *8514:Y *211:12 11.76 
2 *211:12 *211:18 6.47 
3 *211:18 *211:26 12.35 
4 *211:26 *8845:C 15.225 
5 *211:26 *211:53 4.535 
6 *211:53 *8515:A 1.6 
7 *211:53 *8853:C 11.33 
8 *211:18 *8867:S 4.81 
9 *211:12 *211:92 11.57 
10 *211:92 *8875:S 11.315 
11 *211:92 *8872:A 3.805 
*END

*D_NET *212 0.00128834
*CONN
*I *8520:A2 I *D sky130_fd_sc_hd__o311ai_4
*I *8519:A2 I *D sky130_fd_sc_hd__o21bai_2
*I *8516:X O *D sky130_fd_sc_hd__or4_2
*CAP
1 *8520:A2 0.000211507
2 *8519:A2 2.94644e-05
3 *8516:X 9.5796e-05
4 *212:6 0.000336768
5 *8519:A2 *8520:C1 9.72742e-06
6 *8520:A2 *8519:A1 8.84612e-05
7 *8520:A2 *8520:C1 9.75386e-05
8 *212:6 *8516:B 8.23457e-05
9 *212:6 *8519:B1_N 8.88715e-05
10 *212:6 *676:27 0.000161529
11 *190:36 *8519:A2 5.4155e-06
12 *190:36 *8520:A2 1.61831e-05
13 *190:36 *212:6 6.47326e-05
*RES
1 *8516:X *212:6 4.465 
2 *212:6 *8519:A2 2.215 
3 *212:6 *8520:A2 5.425 
*END

*D_NET *213 0.0043433
*CONN
*I *8524:B I *D sky130_fd_sc_hd__or2_1
*I *8537:C I *D sky130_fd_sc_hd__nor4b_1
*I *8518:A2 I *D sky130_fd_sc_hd__o21ai_2
*I *8517:Y O *D sky130_fd_sc_hd__nor3_1
*CAP
1 *8524:B 2.75175e-05
2 *8537:C 0.000141053
3 *8518:A2 0.000487757
4 *8517:Y 0.000239935
5 *213:14 0.000731298
6 *213:12 0.00036994
7 *8518:A2 *8518:A1 2.49909e-05
8 *8518:A2 *8518:B1 2.34602e-05
9 *8518:A2 *8520:B1 2.26018e-05
10 *8518:A2 *8520:C1 8.57024e-05
11 *8518:A2 *8523:B1 0.000111448
12 *8518:A2 *9187:A 0.00010491
13 *8524:B *8499:A 2.75229e-05
14 *8537:C *8537:A 8.23457e-05
15 *8537:C *9187:A 0.000349592
16 *8537:C *671:47 7.68414e-06
17 *213:12 *8499:A 0.000267591
18 *213:12 *8531:C 2.23407e-05
19 *213:12 *8537:B 7.30547e-05
20 *213:12 *671:71 7.40673e-05
21 *213:12 *702:66 2.16389e-05
22 *213:12 *706:28 8.65961e-05
23 *213:14 *671:71 4.7771e-05
24 *8503:A1 *8518:A2 5.57799e-05
25 *8503:A1 *213:14 2.88436e-05
26 *8521:B *8518:A2 0.000176266
27 *9023:A2 *213:12 8.41703e-06
28 *9023:A2 *213:14 3.59531e-06
29 *190:26 *8537:C 0.000531741
30 *198:10 *8518:A2 2.88519e-05
31 *198:10 *213:12 1.59966e-05
32 *198:10 *213:14 6.29952e-05
*RES
1 *8517:Y *213:12 8.775 
2 *213:12 *213:14 2.145 
3 *213:14 *8518:A2 11.625 
4 *213:14 *8537:C 8.895 
5 *213:12 *8524:B 4.05 
*END

*D_NET *214 0.000910185
*CONN
*I *8520:B1 I *D sky130_fd_sc_hd__o311ai_4
*I *8518:Y O *D sky130_fd_sc_hd__o21ai_2
*CAP
1 *8520:B1 0.000192586
2 *8518:Y 0.000192586
3 *8520:B1 *8520:C1 2.7919e-05
4 *8520:B1 *9187:A 0.000312964
5 *8520:B1 *216:10 0.000161529
6 *8518:A2 *8520:B1 2.26018e-05
*RES
1 *8518:Y *8520:B1 7.715 
*END

*D_NET *215 0.00184828
*CONN
*I *8520:C1 I *D sky130_fd_sc_hd__o311ai_4
*I *8519:Y O *D sky130_fd_sc_hd__o21bai_2
*CAP
1 *8520:C1 0.000498601
2 *8519:Y 0.000498601
3 *8520:C1 *8519:A1 0.00052254
4 *8520:C1 *216:10 4.60736e-05
5 *8518:A2 *8520:C1 8.57024e-05
6 *8519:A2 *8520:C1 9.72742e-06
7 *8520:A2 *8520:C1 9.75386e-05
8 *8520:B1 *8520:C1 2.7919e-05
9 *190:36 *8520:C1 6.15767e-05
*RES
1 *8519:Y *8520:C1 12.35 
*END

*D_NET *216 0.00556181
*CONN
*I *8526:A3 I *D sky130_fd_sc_hd__a31o_1
*I *8522:A1 I *D sky130_fd_sc_hd__a31o_1
*I *8534:A2 I *D sky130_fd_sc_hd__a311o_1
*I *8535:B1 I *D sky130_fd_sc_hd__a32o_1
*I *8520:Y O *D sky130_fd_sc_hd__o311ai_4
*CAP
1 *8526:A3 0
2 *8522:A1 0
3 *8534:A2 0
4 *8535:B1 0.000118026
5 *8520:Y 0.000376231
6 *216:34 0.000689138
7 *216:22 0.000872233
8 *216:10 0.000677351
9 *8535:B1 *8535:A3 0
10 *8535:B1 *8535:B2 0.000217474
11 *8535:B1 *9097:CLK 7.26629e-05
12 *8535:B1 *708:98 1.89685e-05
13 *216:10 *8519:A1 1.56428e-05
14 *216:10 *8672:A 9.47454e-05
15 *216:10 *672:16 0
16 *216:10 *672:27 0.000245893
17 *216:22 *8522:B1 5.21627e-05
18 *216:22 *9093:CLK 6.97118e-05
19 *216:22 *672:16 0
20 *216:34 *8522:A3 5.30673e-05
21 *216:34 *8534:A1 8.40213e-05
22 *216:34 *8821:B 0.000806673
23 *216:34 *708:98 0.000118513
24 *216:34 *708:104 1.61831e-05
25 *8520:B1 *216:10 0.000161529
26 *8520:C1 *216:10 4.60736e-05
27 *8522:A2 *216:22 7.63204e-05
28 *8535:A1 *8535:B1 6.9114e-05
29 *9090:D *216:22 9.24127e-05
30 *9093:D *216:22 2.36716e-05
31 *193:20 *8535:B1 9.41478e-05
32 *193:112 *216:22 0.000308724
33 *196:14 *216:22 1.94892e-05
34 *196:27 *216:10 6.74403e-05
35 *196:27 *216:22 4.18603e-06
*RES
1 *8520:Y *216:10 10.23 
2 *216:10 *216:22 13.155 
3 *216:22 *216:34 15.61 
4 *216:34 *8535:B1 9.3275 
5 *216:34 *8534:A2 1.6 
6 *216:22 *8522:A1 1.6 
7 *216:10 *8526:A3 3.6 
*END

*D_NET *217 0.00143113
*CONN
*I *8522:B1 I *D sky130_fd_sc_hd__a31o_1
*I *8521:X O *D sky130_fd_sc_hd__and3_1
*CAP
1 *8522:B1 0.000338996
2 *8521:X 0.000338996
3 *8522:B1 *8522:A3 5.83121e-06
4 *8522:B1 *9093:CLK 9.86611e-05
5 *8522:B1 *704:79 5.16348e-05
6 *8521:B *8522:B1 8.65961e-05
7 *8522:A2 *8522:B1 0
8 *9090:D *8522:B1 4.11198e-05
9 *9093:D *8522:B1 2.67022e-05
10 *196:14 *8522:B1 2.97561e-05
11 *196:27 *8522:B1 0.0001576
12 *201:12 *8522:B1 0.000203074
13 *216:22 *8522:B1 5.21627e-05
*RES
1 *8521:X *8522:B1 15.615 
*END

*D_NET *218 0.00134666
*CONN
*I *8525:A1 I *D sky130_fd_sc_hd__a221o_1
*I *8676:A I *D sky130_fd_sc_hd__and3_1
*I *8523:X O *D sky130_fd_sc_hd__a21o_1
*CAP
1 *8525:A1 0.000224546
2 *8676:A 0
3 *8523:X 0.000190697
4 *218:8 0.000415243
5 *8525:A1 *8523:A2 9.91666e-05
6 *218:8 *8523:A2 1.19928e-05
7 *8502:A *218:8 0.000162941
8 *8525:C1 *8525:A1 0
9 *8676:C *218:8 1.23707e-05
10 *189:76 *218:8 2.8585e-06
11 *193:127 *8525:A1 8.53113e-06
12 *193:142 *8525:A1 0.000218317
*RES
1 *8523:X *218:8 4.135 
2 *218:8 *8676:A 1.6 
3 *218:8 *8525:A1 9.845 
*END

*D_NET *219 0.000474167
*CONN
*I *8525:B1 I *D sky130_fd_sc_hd__a221o_1
*I *8524:X O *D sky130_fd_sc_hd__or2_1
*CAP
1 *8525:B1 0.000130381
2 *8524:X 0.000130381
3 *8525:B1 *8523:A2 7.23602e-05
4 *8525:B1 *671:28 2.25157e-05
5 *8525:B1 *671:41 7.79933e-05
6 *198:10 *8525:B1 4.05358e-05
*RES
1 *8524:X *8525:B1 9.57 
*END

*D_NET *220 0.00509381
*CONN
*I *8543:B1 I *D sky130_fd_sc_hd__o211a_1
*I *8528:D I *D sky130_fd_sc_hd__and4_1
*I *8535:A3 I *D sky130_fd_sc_hd__a32o_1
*I *9020:B I *D sky130_fd_sc_hd__or3_1
*I *8527:Y O *D sky130_fd_sc_hd__nor3_1
*CAP
1 *8543:B1 0
2 *8528:D 0
3 *8535:A3 0.000104107
4 *9020:B 0.000307055
5 *8527:Y 0
6 *220:35 0.00031059
7 *220:31 0.000950348
8 *220:4 0.00105092
9 *8535:A3 *9097:RESET_B 1.77176e-05
10 *8535:A3 *675:29 3.82431e-05
11 *9020:B *9021:A1 0.000198939
12 *9020:B *682:38 0
13 *9020:B *682:44 3.83902e-05
14 *9020:B *684:51 7.37238e-05
15 *220:31 *8527:A 8.23457e-05
16 *220:31 *8527:B 2.50602e-05
17 *220:31 *8527:C 7.00889e-06
18 *220:31 *8529:A1 1.44259e-05
19 *220:31 *8533:A1 0.00016034
20 *220:31 *8536:B1 0.000126679
21 *220:31 *674:38 1.79098e-05
22 *220:31 *675:62 7.4027e-05
23 *220:31 *675:88 0.000109009
24 *220:31 *683:45 0.000100139
25 *220:31 *683:56 0
26 *220:31 *716:24 0
27 *220:35 *675:53 0.000187476
28 *220:35 *675:62 9.50342e-06
29 *8528:C *8535:A3 9.50342e-06
30 *8528:C *220:35 0.000345684
31 *8534:A3 *8535:A3 7.81706e-05
32 *8534:A3 *220:35 0.000291358
33 *8535:B1 *8535:A3 0
34 *9172:D *9020:B 0
35 *193:20 *8535:A3 0
36 *193:48 *220:35 0.000166104
37 *193:81 *220:31 0.000199032
*RES
1 *8527:Y *220:4 1.6 
2 *220:4 *9020:B 10.265 
3 *220:4 *220:31 16.99 
4 *220:31 *220:35 8.99 
5 *220:35 *8535:A3 5.66625 
6 *220:35 *8528:D 3.6 
7 *220:31 *8543:B1 1.6 
*END

*D_NET *221 0.00133928
*CONN
*I *8534:B1 I *D sky130_fd_sc_hd__a311o_1
*I *8528:X O *D sky130_fd_sc_hd__and4_1
*CAP
1 *8534:B1 0.000296689
2 *8528:X 0.000296689
3 *8534:B1 *8534:C1 0.000314438
4 *8534:B1 *8542:B1 0.000237243
5 *8534:B1 *9097:CLK 0.000184717
6 *8534:B1 *708:98 9.50342e-06
7 *8534:A3 *8534:B1 0
*RES
1 *8528:X *8534:B1 13.05 
*END

*D_NET *222 0.00144956
*CONN
*I *8533:A1 I *D sky130_fd_sc_hd__o21a_1
*I *8529:X O *D sky130_fd_sc_hd__o311a_1
*CAP
1 *8533:A1 0.00026389
2 *8529:X 0.00026389
3 *8533:A1 *8533:A2 4.99619e-05
4 *8533:A1 *8539:A2 0.000239813
5 *8533:A1 *673:8 4.00541e-06
6 *8533:A1 *673:31 0.000232105
7 *8533:A1 *674:38 7.23533e-05
8 *8533:B1 *8533:A1 0.000163204
9 *220:31 *8533:A1 0.00016034
*RES
1 *8529:X *8533:A1 14.22 
*END

*D_NET *223 0.00161534
*CONN
*I *8532:A1 I *D sky130_fd_sc_hd__o21ba_1
*I *8538:A2 I *D sky130_fd_sc_hd__o21a_1
*I *8675:A2 I *D sky130_fd_sc_hd__o21a_1
*I *8530:X O *D sky130_fd_sc_hd__and2_1
*CAP
1 *8532:A1 2.58869e-05
2 *8538:A2 9.14406e-05
3 *8675:A2 0.000119468
4 *8530:X 0.000120448
5 *223:27 0.000225153
6 *223:8 0.000347741
7 *8532:A1 *8501:B 9.80943e-06
8 *8532:A1 *8532:A2 9.11718e-05
9 *8532:A1 *702:82 0.0001249
10 *8538:A2 *8530:B 0
11 *8538:A2 *8538:B1 6.5525e-05
12 *8675:A2 *8669:A2 4.94404e-05
13 *8675:A2 *621:53 0
14 *223:8 *8533:A2 7.23602e-05
15 *223:8 *8538:B1 9.29751e-06
16 *223:8 *621:43 0
17 *223:8 *621:53 0
18 *223:27 *8501:B 0.000164874
19 *223:27 *8532:A2 3.26889e-05
20 *223:27 *8532:B1_N 1.85674e-05
21 *223:27 *621:79 0
22 *223:27 *702:82 2.8185e-05
23 *8675:B1 *8538:A2 0
24 *8675:B1 *8675:A2 1.83847e-05
25 *8675:B1 *223:8 0
*RES
1 *8530:X *223:8 5.49 
2 *223:8 *8675:A2 5.43 
3 *223:8 *223:27 4.55 
4 *223:27 *8538:A2 7.49 
5 *223:27 *8532:A1 3.1 
*END

*D_NET *224 0.00116401
*CONN
*I *8532:A2 I *D sky130_fd_sc_hd__o21ba_1
*I *8531:X O *D sky130_fd_sc_hd__and4b_1
*CAP
1 *8532:A2 0.000152362
2 *8531:X 0.000152362
3 *8532:A2 *8501:A 8.23457e-05
4 *8532:A2 *8501:B 0.000205398
5 *8532:A2 *673:78 6.6015e-05
6 *8532:A2 *702:82 0.000105089
7 *8532:A2 *704:67 0.000116165
8 *8532:A1 *8532:A2 9.11718e-05
9 *192:21 *8532:A2 0.000113797
10 *199:14 *8532:A2 4.66108e-05
11 *223:27 *8532:A2 3.26889e-05
*RES
1 *8531:X *8532:A2 13.245 
*END

*D_NET *225 0.000981102
*CONN
*I *8533:A2 I *D sky130_fd_sc_hd__o21a_1
*I *8532:X O *D sky130_fd_sc_hd__o21ba_1
*CAP
1 *8533:A2 0.000331919
2 *8532:X 0.000331919
3 *8533:A2 *8538:B1 3.86607e-05
4 *8533:A2 *8539:A2 0.000156282
5 *8533:A1 *8533:A2 4.99619e-05
6 *223:8 *8533:A2 7.23602e-05
*RES
1 *8532:X *8533:A2 12.69 
*END

*D_NET *226 0.00307838
*CONN
*I *8542:B1 I *D sky130_fd_sc_hd__a21o_1
*I *8534:C1 I *D sky130_fd_sc_hd__a311o_1
*I *8533:X O *D sky130_fd_sc_hd__o21a_1
*CAP
1 *8542:B1 0.000311414
2 *8534:C1 0.000174426
3 *8533:X 0.00043049
4 *226:10 0.000916331
5 *8534:C1 *742:10 0
6 *226:10 *8516:A 0
7 *226:10 *8539:A2 0.000113293
8 *226:10 *742:10 0
9 *8533:B1 *226:10 0
10 *8534:B1 *8534:C1 0.000314438
11 *8534:B1 *8542:B1 0.000237243
12 *8541:A2 *8542:B1 7.70985e-05
13 *9097:D *8534:C1 0
14 *193:48 *226:10 0
15 *196:33 *8542:B1 0.000503643
*RES
1 *8533:X *226:10 10.365 
2 *226:10 *8534:C1 7.53 
3 *226:10 *8542:B1 10.86 
*END

*D_NET *227 0.00107951
*CONN
*I *8540:A1 I *D sky130_fd_sc_hd__a21o_1
*I *8535:X O *D sky130_fd_sc_hd__a32o_1
*CAP
1 *8540:A1 0.000312857
2 *8535:X 0.000312857
3 *8540:A1 *8541:A1 2.45351e-05
4 *8540:A1 *9096:RESET_B 8.65905e-05
5 *8540:A1 *9097:RESET_B 8.23457e-05
6 *8540:A1 *231:14 5.53249e-06
7 *8540:A1 *674:12 0
8 *8540:A1 *674:21 7.97083e-05
9 *8540:A1 *735:163 0.000175082
*RES
1 *8535:X *8540:A1 13.05 
*END

*D_NET *228 0.00155518
*CONN
*I *8539:A1 I *D sky130_fd_sc_hd__o21a_1
*I *8536:X O *D sky130_fd_sc_hd__o311a_1
*CAP
1 *8539:A1 0.000260991
2 *8536:X 0.000260991
3 *8539:A1 *8529:A3 0
4 *8539:A1 *8539:A2 2.75145e-05
5 *8539:A1 *8544:B 0.000158072
6 *8539:A1 *8545:A1 5.38986e-05
7 *8539:A1 *8545:A2 0.00031207
8 *8539:A1 *8673:A 7.4027e-05
9 *8539:A1 *8674:D1 0.000139245
10 *8539:A1 *9175:RESET_B 1.52862e-05
11 *8539:A1 *735:163 0.000105841
12 *8539:B1 *8539:A1 0.000124895
13 *190:61 *8539:A1 2.23485e-05
14 *193:81 *8539:A1 0
*RES
1 *8536:X *8539:A1 15.18 
*END

*D_NET *229 0.000105481
*CONN
*I *8538:A1 I *D sky130_fd_sc_hd__o21a_1
*I *8537:Y O *D sky130_fd_sc_hd__nor4b_1
*CAP
1 *8538:A1 5.27404e-05
2 *8537:Y 5.27404e-05
*RES
1 *8537:Y *8538:A1 3.995 
*END

*D_NET *230 0.00197446
*CONN
*I *8539:A2 I *D sky130_fd_sc_hd__o21a_1
*I *8538:X O *D sky130_fd_sc_hd__o21a_1
*CAP
1 *8539:A2 0.000609033
2 *8538:X 0.000609033
3 *8539:A2 *8516:A 0
4 *8533:A1 *8539:A2 0.000239813
5 *8533:A2 *8539:A2 0.000156282
6 *8533:B1 *8539:A2 9.54399e-05
7 *8539:A1 *8539:A2 2.75145e-05
8 *8539:B1 *8539:A2 1.47347e-05
9 *189:86 *8539:A2 1.83847e-05
10 *189:88 *8539:A2 9.09288e-05
11 *226:10 *8539:A2 0.000113293
*RES
1 *8538:X *8539:A2 17.16 
*END

*D_NET *231 0.00118658
*CONN
*I *8540:B1 I *D sky130_fd_sc_hd__a21o_1
*I *8541:B1 I *D sky130_fd_sc_hd__a21o_1
*I *8539:X O *D sky130_fd_sc_hd__o21a_1
*CAP
1 *8540:B1 1.90984e-05
2 *8541:B1 0.000178045
3 *8539:X 0.000163769
4 *231:14 0.000360913
5 *8541:B1 *735:163 0.000186099
6 *8541:B1 *763:10 0
7 *231:14 *674:21 9.50342e-06
8 *231:14 *674:34 0.000108322
9 *231:14 *735:163 0
10 *8540:A1 *231:14 5.53249e-06
11 *8540:A2 *8540:B1 4.00541e-06
12 *8540:A2 *231:14 9.53428e-06
13 *9088:D *8541:B1 0
14 *9095:D *8541:B1 4.82919e-05
15 *190:44 *231:14 2.11084e-05
16 *190:61 *231:14 7.23602e-05
*RES
1 *8539:X *231:14 8.825 
2 *231:14 *8541:B1 8.99 
3 *231:14 *8540:B1 1.96 
*END

*D_NET *232 0.000938081
*CONN
*I *8545:A1 I *D sky130_fd_sc_hd__o21a_1
*I *8543:X O *D sky130_fd_sc_hd__o211a_1
*CAP
1 *8545:A1 0.000286969
2 *8543:X 0.000286969
3 *8545:A1 *8545:A2 8.40213e-05
4 *8545:A1 *8674:D1 8.53113e-06
5 *8545:A1 *9094:RESET_B 5.83121e-06
6 *8545:A1 *9175:RESET_B 0.00011379
7 *8545:A1 *673:8 1.1392e-05
8 *8545:A1 *673:31 2.65814e-06
9 *8539:A1 *8545:A1 5.38986e-05
10 *8545:B1 *8545:A1 8.40213e-05
*RES
1 *8543:X *8545:A1 11.55 
*END

*D_NET *233 0.00119723
*CONN
*I *8545:A2 I *D sky130_fd_sc_hd__o21a_1
*I *8544:X O *D sky130_fd_sc_hd__and2b_1
*CAP
1 *8545:A2 0.000210594
2 *8544:X 0.000210594
3 *8545:A2 *8673:A 5.83121e-06
4 *8545:A2 *8674:D1 4.66108e-05
5 *8545:A2 *674:38 0
6 *8539:A1 *8545:A2 0.00031207
7 *8545:A1 *8545:A2 8.40213e-05
8 *8545:B1 *8545:A2 5.68717e-05
9 *190:61 *8545:A2 0.000270633
*RES
1 *8544:X *8545:A2 13.05 
*END

*D_NET *234 0.0343199
*CONN
*I *8659:A I *D sky130_fd_sc_hd__and2_1
*I *8555:A I *D sky130_fd_sc_hd__and2_1
*I *8661:A I *D sky130_fd_sc_hd__and2_1
*I *8657:A I *D sky130_fd_sc_hd__and3_1
*I *8663:A I *D sky130_fd_sc_hd__and2_1
*I *8665:A I *D sky130_fd_sc_hd__and2_1
*I *8547:A I *D sky130_fd_sc_hd__and3_1
*I *8931:A1 I *D sky130_fd_sc_hd__a32o_1
*I *8930:A1 I *D sky130_fd_sc_hd__a32o_1
*I *8951:A1 I *D sky130_fd_sc_hd__a41o_1
*I *8546:X O *D sky130_fd_sc_hd__clkbuf_4
*CAP
1 *8659:A 7.1841e-05
2 *8555:A 0.00217137
3 *8661:A 0.000121089
4 *8657:A 0
5 *8663:A 0.00121219
6 *8665:A 0
7 *8547:A 0.000213209
8 *8931:A1 0
9 *8930:A1 0.000207965
10 *8951:A1 0.00124317
11 *8546:X 0
12 *234:146 0.00224321
13 *234:135 0.000737854
14 *234:102 0.00164122
15 *234:46 0.00198
16 *234:34 0.00363532
17 *234:28 0.00353174
18 *234:22 0.00238317
19 *234:4 0.00279046
20 *8547:A *8727:B2 0
21 *8547:A *8931:A3 0
22 *8547:A *8931:B1 8.7152e-06
23 *8547:A *9077:RESET_B 0
24 *8547:A *710:46 7.60965e-05
25 *8547:A *733:8 4.99619e-05
26 *8547:A *733:10 0
27 *8555:A *8555:B 5.30673e-05
28 *8555:A *8591:A_N 7.06865e-05
29 *8555:A *8986:A1 0
30 *8555:A *9042:RESET_B 0.000482506
31 *8555:A *9131:SET_B 0.000112266
32 *8555:A *9134:RESET_B 0.000377158
33 *8555:A *9191:A 8.73389e-06
34 *8555:A *677:14 3.26889e-05
35 *8555:A *707:221 0.000106682
36 *8555:A *717:67 4.21666e-05
37 *8555:A *720:8 0.000184866
38 *8555:A *735:1201 9.21168e-05
39 *8555:A *745:10 4.92062e-05
40 *8659:A *707:221 8.82557e-05
41 *8661:A *8659:B 0
42 *8661:A *8661:B 0
43 *8661:A *8662:A 0
44 *8661:A *735:1147 7.36562e-05
45 *8661:A *735:1165 2.86623e-05
46 *8663:A *8665:B 0.000349184
47 *8663:A *9161:CLK 0.000138799
48 *8930:A1 *8930:A2 3.15283e-05
49 *8930:A1 *8930:A3 2.01411e-05
50 *8930:A1 *9078:CLK 7.3664e-05
51 *8930:A1 *740:58 0.000191096
52 *8930:A1 *744:16 0
53 *8951:A1 *8702:A1 0.000234685
54 *8951:A1 *8709:B2 7.96104e-06
55 *8951:A1 *8710:B 0.000116158
56 *8951:A1 *8898:A1 2.60629e-05
57 *8951:A1 *8898:B1 0.000484929
58 *8951:A1 *8928:A3 0
59 *8951:A1 *8951:A4 3.44034e-05
60 *8951:A1 *9077:RESET_B 0
61 *8951:A1 *9078:CLK 3.05295e-05
62 *8951:A1 *502:49 9.50342e-06
63 *8951:A1 *505:97 3.31282e-05
64 *8951:A1 *579:12 0.000422773
65 *8951:A1 *731:12 0
66 *8951:A1 *735:419 2.64331e-05
67 *8951:A1 *735:448 0
68 *8951:A1 *735:811 0
69 *8951:A1 *737:47 9.26214e-05
70 *8951:A1 *740:58 0.000379665
71 *8951:A1 *744:18 5.16418e-05
72 *234:22 *8608:B 0
73 *234:22 *8850:A1 0.000180544
74 *234:22 *9013:A1 3.59997e-05
75 *234:22 *9013:B1 0.000154262
76 *234:22 *9064:SET_B 0
77 *234:22 *9114:SET_B 0
78 *234:22 *9135:CLK 0
79 *234:22 *9140:SET_B 0
80 *234:22 *9144:CLK 4.40899e-05
81 *234:22 *275:106 0
82 *234:22 *292:74 0
83 *234:22 *611:14 0
84 *234:22 *618:62 0.000268973
85 *234:22 *639:14 5.95397e-05
86 *234:22 *644:90 1.51046e-05
87 *234:22 *666:10 0.000133763
88 *234:22 *666:12 0.00018305
89 *234:22 *711:20 0
90 *234:22 *711:78 0
91 *234:22 *713:10 4.62396e-05
92 *234:22 *735:627 0
93 *234:28 *644:90 1.83847e-05
94 *234:34 *8727:A1 1.35084e-05
95 *234:34 *509:45 0.000249212
96 *234:34 *531:80 0
97 *234:34 *616:54 0
98 *234:34 *644:37 6.97713e-05
99 *234:34 *735:560 0.000109836
100 *234:46 *8914:B 1.61428e-05
101 *234:46 *8931:A3 8.33292e-05
102 *234:46 *8931:B1 0.000137894
103 *234:102 *9160:CLK 4.92014e-05
104 *234:102 *606:52 5.02217e-05
105 *234:135 *8662:A 0
106 *234:135 *8741:A2 0
107 *234:135 *8850:A1 3.1562e-06
108 *234:135 *237:71 0.000324686
109 *234:135 *735:1165 1.97849e-05
110 *234:135 *745:10 0.000163012
111 *234:135 *745:42 0.00133337
112 *9075:D *8951:A1 0.000409972
113 *9077:D *8930:A1 2.11084e-05
114 *9078:D *234:46 0.000157968
115 *9139:D *234:22 0.000478974
116 *9140:D *234:22 2.96553e-05
117 *9141:D *234:22 0
118 *9145:D *234:22 0.000179652
119 *9146:D *234:22 0.000101663
120 *9160:D *234:102 0
121 *9162:D *234:102 0.000175832
122 *9164:D *234:135 6.28843e-05
123 *9165:D *234:135 0
124 *9168:D *234:22 6.28765e-05
*RES
1 *8546:X *234:4 1.6 
2 *234:4 *234:22 45.19 
3 *234:22 *234:28 5.2325 
4 *234:28 *234:34 5.9324 
5 *234:34 *234:46 11.26 
6 *234:46 *8951:A1 34.975 
7 *234:46 *8930:A1 8.475 
8 *234:34 *8931:A1 3.6 
9 *234:34 *8547:A 7.275 
10 *234:28 *234:102 8.1375 
11 *234:102 *8665:A 3.6 
12 *234:102 *8663:A 20.415 
13 *234:22 *8657:A 1.6 
14 *234:4 *234:135 20.15 
15 *234:135 *8661:A 5.745 
16 *234:135 *234:146 2 
17 *234:146 *8555:A 36.86 
18 *234:146 *8659:A 3.085 
*END

*D_NET *235 0.000672596
*CONN
*I *8548:A I *D sky130_fd_sc_hd__clkbuf_1
*I *8547:X O *D sky130_fd_sc_hd__and3_1
*CAP
1 *8548:A 0.000334813
2 *8547:X 0.000334813
3 *8548:A *8547:B 2.97004e-06
4 *8548:A *710:70 0
*RES
1 *8547:X *8548:A 12.45 
*END

*D_NET *236 0.0201063
*CONN
*I *8936:B1 I *D sky130_fd_sc_hd__a31oi_4
*I *8910:A I *D sky130_fd_sc_hd__or2_1
*I *8916:A I *D sky130_fd_sc_hd__or2_1
*I *8912:A I *D sky130_fd_sc_hd__or2_1
*I *8914:A I *D sky130_fd_sc_hd__or2_1
*I *8918:A I *D sky130_fd_sc_hd__or2_1
*I *8908:A I *D sky130_fd_sc_hd__or2_1
*I *8550:A I *D sky130_fd_sc_hd__clkbuf_4
*I *8807:A I *D sky130_fd_sc_hd__or3_2
*I *8963:A I *D sky130_fd_sc_hd__nor3_1
*I *8549:X O *D sky130_fd_sc_hd__clkbuf_4
*CAP
1 *8936:B1 0.000668378
2 *8910:A 0
3 *8916:A 4.96234e-05
4 *8912:A 9.72439e-05
5 *8914:A 8.89453e-05
6 *8918:A 0.000114897
7 *8908:A 0.000162167
8 *8550:A 0.000190254
9 *8807:A 0.000698099
10 *8963:A 0.000103249
11 *8549:X 0
12 *236:113 0.000225949
13 *236:100 0.000169301
14 *236:98 0.000261793
15 *236:85 0.000509959
16 *236:77 0.00136327
17 *236:37 0.00123967
18 *236:29 0.00252702
19 *236:25 0.00197097
20 *236:4 0.000443137
21 *8550:A *237:10 3.64998e-06
22 *8807:A *8518:A1 0
23 *8807:A *8554:A2 7.63883e-05
24 *8807:A *8807:B 0
25 *8807:A *8807:C 0.000124007
26 *8807:A *9023:A1 0
27 *8807:A *9023:C1 4.92096e-05
28 *8807:A *581:57 0
29 *8807:A *671:28 0.000307368
30 *8807:A *702:35 0.000175901
31 *8807:A *706:18 0.000105068
32 *8807:A *707:157 0.00031682
33 *8807:A *717:10 8.70923e-05
34 *8807:A *717:21 9.61052e-05
35 *8807:A *717:32 7.07722e-05
36 *8807:A *717:45 0.000106893
37 *8807:A *717:98 6.9779e-05
38 *8908:A *8716:B2 0.000131811
39 *8908:A *9181:A 5.4155e-06
40 *8908:A *521:16 0.000159313
41 *8908:A *710:10 8.8266e-05
42 *8912:A *8547:C 8.34426e-05
43 *8912:A *8727:B2 7.97539e-05
44 *8912:A *8912:B 0.000222376
45 *8912:A *8930:A3 2.49909e-05
46 *8914:A *8914:B 9.27495e-05
47 *8914:A *8931:A3 0.000122337
48 *8914:A *644:37 4.85494e-05
49 *8916:A *8547:C 1.88904e-05
50 *8916:A *509:6 4.82863e-05
51 *8916:A *519:14 4.66108e-05
52 *8918:A *8916:B 4.0843e-05
53 *8918:A *519:14 4.66108e-05
54 *8936:B1 *8953:A1 0
55 *8936:B1 *502:120 0
56 *8936:B1 *527:90 1.22762e-05
57 *8963:A *700:8 0
58 *8963:A *742:20 0.000103192
59 *8963:A *742:29 4.82919e-05
60 *8963:A *742:37 1.52184e-05
61 *236:25 *8950:A1 0
62 *236:25 *8950:A2 0
63 *236:25 *8953:A1 0
64 *236:25 *742:29 3.66286e-05
65 *236:29 *742:37 0.000592171
66 *236:29 *742:58 0.000137953
67 *236:37 *239:20 9.3062e-06
68 *236:37 *239:88 0.000105143
69 *236:37 *505:28 3.03587e-05
70 *236:37 *702:35 0.000474343
71 *236:37 *706:18 0.00049068
72 *236:37 *763:26 7.65929e-05
73 *236:77 *8547:C 7.72568e-05
74 *236:77 *8711:A1 0.000119756
75 *236:77 *8897:B1 0.000622537
76 *236:77 *8925:B2 6.92175e-05
77 *236:77 *8927:B1 9.50342e-06
78 *236:77 *8928:A1 3.26889e-05
79 *236:77 *8935:B2 4.78859e-05
80 *236:77 *8947:B2 1.79483e-05
81 *236:77 *239:107 0.000212005
82 *236:77 *239:116 0.000233169
83 *236:77 *239:129 9.50342e-06
84 *236:77 *523:23 0.000136884
85 *236:77 *523:32 0.000446341
86 *236:77 *707:78 1.79483e-05
87 *236:77 *723:12 1.96767e-05
88 *236:77 *729:12 7.4027e-05
89 *236:77 *737:47 3.45252e-05
90 *236:77 *742:58 0.000179952
91 *236:85 *8547:C 6.2912e-05
92 *236:85 *8714:A1 7.24682e-05
93 *236:85 *8714:B1 0.000135905
94 *236:85 *523:32 4.9968e-05
95 *236:85 *523:45 0.000136884
96 *236:85 *523:54 0.000141221
97 *236:98 *8547:C 0.000132748
98 *236:98 *8714:A1 0.000332802
99 *236:98 *8912:B 6.03272e-05
100 *236:98 *523:54 2.4997e-05
101 *236:98 *523:67 0.000263756
102 *236:100 *8547:C 1.61696e-05
103 *236:100 *8912:B 3.10777e-05
104 *236:113 *8547:C 4.94404e-05
105 *236:113 *8912:B 8.45475e-05
106 *8937:D *8936:B1 0
107 *8967:B1 *8963:A 7.16181e-05
108 *9100:D *236:77 9.47454e-05
109 *9176:D *8807:A 0.000118527
110 *193:127 *8807:A 0
111 *195:39 *8807:A 0
112 *208:23 *8936:B1 0
113 *208:23 *236:25 0
*RES
1 *8549:X *236:4 1.6 
2 *236:4 *8963:A 8.45 
3 *236:4 *236:25 6.6425 
4 *236:25 *236:29 2.51907 
5 *236:29 *236:37 11.4875 
6 *236:37 *8807:A 21.165 
7 *236:37 *8550:A 6.12 
8 *236:29 *236:77 25.5399 
9 *236:77 *236:85 6.485 
10 *236:85 *8908:A 7.86 
11 *236:85 *236:98 6.8625 
12 *236:98 *236:100 0.4875 
13 *236:100 *8918:A 5.1 
14 *236:100 *236:113 1.125 
15 *236:113 *8914:A 6.135 
16 *236:113 *8912:A 6.705 
17 *236:98 *8916:A 4.7325 
18 *236:77 *8910:A 1.6 
19 *236:25 *8936:B1 13.5225 
*END

*D_NET *237 0.0202012
*CONN
*I *9008:B1 I *D sky130_fd_sc_hd__a21o_1
*I *9002:B1 I *D sky130_fd_sc_hd__a21o_1
*I *9006:B1 I *D sky130_fd_sc_hd__a21o_1
*I *9004:B1 I *D sky130_fd_sc_hd__a21o_1
*I *8749:C1 I *D sky130_fd_sc_hd__a211o_1
*I *9010:B1 I *D sky130_fd_sc_hd__a21o_1
*I *8747:C1 I *D sky130_fd_sc_hd__a211o_1
*I *8593:A I *D sky130_fd_sc_hd__nor2_1
*I *8897:B1 I *D sky130_fd_sc_hd__a31oi_1
*I *8551:A I *D sky130_fd_sc_hd__nor2_1
*I *8550:X O *D sky130_fd_sc_hd__clkbuf_4
*CAP
1 *9008:B1 0
2 *9002:B1 0.00016813
3 *9006:B1 6.85817e-06
4 *9004:B1 0
5 *8749:C1 2.25496e-05
6 *9010:B1 3.85992e-05
7 *8747:C1 0
8 *8593:A 3.45394e-05
9 *8897:B1 0.000859819
10 *8551:A 1.71225e-05
11 *8550:X 0
12 *237:121 0.000197535
13 *237:107 0.000204241
14 *237:95 0.000736045
15 *237:82 0.000738538
16 *237:78 0.000233918
17 *237:71 0.00239001
18 *237:46 0.0036845
19 *237:10 0.00118808
20 *237:4 0.00163688
21 *8551:A *8551:B 5.05437e-05
22 *8551:A *8552:B1 8.65905e-05
23 *8749:C1 *8749:A1 0.000123225
24 *8749:C1 *9184:A 0.000123225
25 *8897:B1 *8702:A1 7.14215e-05
26 *8897:B1 *8925:A2 1.90762e-05
27 *8897:B1 *8925:B1 2.24829e-05
28 *8897:B1 *8947:B1 0.000468646
29 *8897:B1 *8947:B2 2.27497e-05
30 *8897:B1 *8951:A4 5.85003e-05
31 *8897:B1 *9071:CLK 2.47313e-05
32 *8897:B1 *9099:CLK 9.04841e-05
33 *8897:B1 *239:20 0
34 *8897:B1 *581:57 8.53113e-06
35 *8897:B1 *723:12 4.20291e-05
36 *8897:B1 *723:14 0.000117218
37 *8897:B1 *723:16 0.000181264
38 *9002:B1 *8630:A2 1.83756e-05
39 *9002:B1 *9002:A2 0
40 *9002:B1 *9003:A1 0
41 *9002:B1 *9007:B1 6.28498e-05
42 *9002:B1 *292:28 5.69805e-05
43 *9002:B1 *319:25 0
44 *9002:B1 *645:10 0
45 *9010:B1 *9010:A2 4.82919e-05
46 *9010:B1 *9011:B1 2.16833e-05
47 *9010:B1 *9167:CLK 0.000119762
48 *237:10 *239:20 0
49 *237:10 *581:57 0.000423468
50 *237:46 *8554:A1 0.000207879
51 *237:46 *8554:A2 2.20732e-05
52 *237:46 *8556:A 2.68526e-05
53 *237:46 *8594:B1 1.4389e-05
54 *237:46 *8730:A1 0.000274334
55 *237:46 *677:90 5.2089e-05
56 *237:46 *735:268 0
57 *237:71 *8594:B1 6.07575e-06
58 *237:71 *8598:A_N 0.0001249
59 *237:71 *8598:B_N 3.59311e-05
60 *237:71 *8598:C 4.80285e-05
61 *237:71 *8741:A1 0
62 *237:71 *8741:B1_N 0.00023512
63 *237:71 *8747:A1 4.18603e-06
64 *237:71 *8842:A1 0.000665308
65 *237:71 *9009:B1 4.13092e-05
66 *237:71 *610:21 0
67 *237:71 *720:36 0.000462975
68 *237:71 *735:1266 0
69 *237:71 *735:1279 0
70 *237:71 *745:42 0
71 *237:78 *8747:B1 0.000158072
72 *237:78 *650:18 4.82919e-05
73 *237:82 *8747:B1 0
74 *237:82 *9008:A1 2.97004e-06
75 *237:82 *9008:A2 0.000242409
76 *237:82 *319:46 7.12228e-06
77 *237:95 *8748:B1 8.03611e-05
78 *237:95 *9006:A1 7.40395e-05
79 *237:95 *9007:B1 0.000130106
80 *237:95 *319:33 0
81 *237:95 *319:46 0.000248254
82 *237:107 *8749:A1 8.49205e-05
83 *237:107 *9004:A2 5.27218e-05
84 *237:107 *9184:A 3.57349e-05
85 *237:107 *614:56 8.34281e-06
86 *237:121 *9006:A1 4.43871e-06
87 *237:121 *9007:B1 4.54719e-05
88 *237:121 *319:25 0
89 *237:121 *319:27 0
90 *8550:A *237:10 3.64998e-06
91 *8608:A *9006:B1 1.82559e-05
92 *8608:A *237:71 0.000137825
93 *8608:A *237:82 0.00051037
94 *8608:A *237:95 0.000361773
95 *8608:A *237:107 2.03356e-05
96 *9045:D *237:10 0.000116165
97 *9046:D *237:71 0.000115184
98 *9137:D *237:71 1.9415e-05
99 *9140:D *237:71 0
100 *9165:D *237:71 0
101 *208:63 *8897:B1 7.76666e-05
102 *208:73 *8897:B1 6.16226e-06
103 *208:88 *237:71 2.97004e-06
104 *234:135 *237:71 0.000324686
105 *236:77 *8897:B1 0.000622537
*RES
1 *8550:X *237:4 1.6 
2 *237:4 *237:10 8.09 
3 *237:10 *8551:A 4.395 
4 *237:10 *8897:B1 22.635 
5 *237:4 *237:46 24.31 
6 *237:46 *8593:A 2.215 
7 *237:46 *237:71 43.99 
8 *237:71 *8747:C1 1.6 
9 *237:71 *237:78 1.485 
10 *237:78 *237:82 7.97 
11 *237:82 *9010:B1 4.74 
12 *237:82 *237:95 12.285 
13 *237:95 *237:107 5.105 
14 *237:107 *8749:C1 2.74 
15 *237:107 *9004:B1 1.6 
16 *237:95 *237:121 0.615 
17 *237:121 *9006:B1 3.77625 
18 *237:121 *9002:B1 6.555 
19 *237:78 *9008:B1 1.6 
*END

*D_NET *238 0.000516608
*CONN
*I *8552:B1 I *D sky130_fd_sc_hd__o31a_1
*I *8551:Y O *D sky130_fd_sc_hd__nor2_1
*CAP
1 *8552:B1 0.000176617
2 *8551:Y 0.000176617
3 *8552:B1 *8551:B 3.97267e-05
4 *8552:B1 *9098:CLK 3.70572e-05
5 *8551:A *8552:B1 8.65905e-05
6 *9098:D *8552:B1 0
*RES
1 *8551:Y *8552:B1 6.08 
*END

*D_NET *239 0.0164899
*CONN
*I *8924:A1 I *D sky130_fd_sc_hd__a32o_1
*I *8927:A1 I *D sky130_fd_sc_hd__a32o_1
*I *8929:A1 I *D sky130_fd_sc_hd__a32o_1
*I *8928:A1 I *D sky130_fd_sc_hd__a32o_1
*I *8926:A1 I *D sky130_fd_sc_hd__a32o_1
*I *8925:A1 I *D sky130_fd_sc_hd__a32o_1
*I *8554:B1 I *D sky130_fd_sc_hd__o21a_1
*I *8559:B1 I *D sky130_fd_sc_hd__o21a_1
*I *8592:B1 I *D sky130_fd_sc_hd__o21a_1
*I *9001:C1 I *D sky130_fd_sc_hd__o211a_1
*I *8553:X O *D sky130_fd_sc_hd__clkbuf_4
*CAP
1 *8924:A1 0.000237982
2 *8927:A1 0
3 *8929:A1 0.000139454
4 *8928:A1 9.16193e-05
5 *8926:A1 0
6 *8925:A1 0
7 *8554:B1 8.12594e-06
8 *8559:B1 5.83922e-05
9 *8592:B1 0
10 *9001:C1 0.000364201
11 *8553:X 8.0775e-05
12 *239:129 0.000265591
13 *239:116 0.000449762
14 *239:107 0.000385339
15 *239:103 0.000584405
16 *239:88 0.000567184
17 *239:50 0.000994529
18 *239:36 0.00126722
19 *239:20 0.00131872
20 *239:8 0.00118696
21 *8554:B1 *717:53 3.74161e-05
22 *8559:B1 *8558:A 0
23 *8559:B1 *8559:A1 0.000128012
24 *8559:B1 *9044:RESET_B 9.8165e-05
25 *8924:A1 *8903:B 4.45629e-05
26 *8924:A1 *8924:A2 0.000194754
27 *8924:A1 *8924:B2 1.47347e-05
28 *8924:A1 *723:10 0.000160635
29 *8928:A1 *8711:A1 0.000198939
30 *8928:A1 *8928:A2 4.43682e-05
31 *8928:A1 *8928:B1 6.74384e-05
32 *8928:A1 *8928:B2 2.0514e-05
33 *8928:A1 *737:47 0.000163819
34 *8929:A1 *8927:A3 8.7152e-06
35 *8929:A1 *8929:A3 0
36 *8929:A1 *8929:B1 8.7152e-06
37 *8929:A1 *521:22 9.387e-06
38 *8929:A1 *521:84 5.71187e-05
39 *8929:A1 *521:88 4.55864e-06
40 *8929:A1 *523:54 0
41 *9001:C1 *9001:A2 0.000285731
42 *9001:C1 *9134:CLK 0.000277223
43 *9001:C1 *9134:RESET_B 0
44 *9001:C1 *735:290 0
45 *239:8 *8719:B 0.000197264
46 *239:20 *8677:A 0.000206767
47 *239:20 *581:57 0
48 *239:20 *702:35 0.000162176
49 *239:20 *717:53 0.000215073
50 *239:20 *717:98 0.000539846
51 *239:36 *8554:A2 0.000120655
52 *239:36 *9022:B1 7.58604e-05
53 *239:36 *9044:RESET_B 4.54998e-05
54 *239:36 *677:90 0
55 *239:36 *717:53 0.000109172
56 *239:36 *735:268 1.44259e-05
57 *239:50 *8556:A 0
58 *239:50 *8559:A1 0.000632721
59 *239:50 *8592:A1 1.14169e-05
60 *239:50 *9043:CLK 0
61 *239:50 *9134:RESET_B 0
62 *239:50 *581:23 2.5021e-05
63 *239:50 *581:34 0.000163215
64 *239:50 *742:73 1.92098e-05
65 *239:88 *8925:B1 8.7152e-06
66 *239:88 *8950:A1 0
67 *239:88 *505:22 0.000420846
68 *239:88 *505:28 0.000168807
69 *239:88 *723:12 4.48683e-05
70 *239:88 *723:14 4.01243e-05
71 *239:103 *8925:A2 0.000136884
72 *239:103 *8925:B1 1.92979e-05
73 *239:103 *707:78 2.39856e-05
74 *239:103 *723:10 8.23457e-05
75 *239:103 *723:12 2.54052e-05
76 *239:107 *8925:B2 0.000261889
77 *239:107 *521:28 7.00066e-05
78 *239:107 *707:78 1.93765e-05
79 *239:116 *521:26 0.000119529
80 *239:116 *729:12 7.23533e-05
81 *239:129 *8927:A3 3.77453e-05
82 *239:129 *8927:B1 0.000114112
83 *239:129 *521:22 2.16389e-05
84 *239:129 *521:26 2.97204e-05
85 *8897:B1 *239:20 0
86 *8922:D *239:88 0.000170285
87 *8922:D *239:103 0.000195808
88 *9022:A2 *239:20 0
89 *9044:D *8554:B1 4.82919e-05
90 *9044:D *239:20 4.82863e-05
91 *9044:D *239:36 4.06436e-05
92 *9045:D *239:20 4.61658e-05
93 *9062:D *239:103 0
94 *9073:D *239:116 7.29917e-05
95 *9134:D *9001:C1 0
96 *195:39 *9001:C1 0.000275285
97 *195:39 *239:50 6.60042e-05
98 *208:63 *239:88 0.000822701
99 *208:73 *239:88 2.05641e-05
100 *236:37 *239:20 9.3062e-06
101 *236:37 *239:88 0.000105143
102 *236:77 *8928:A1 3.26889e-05
103 *236:77 *239:107 0.000212005
104 *236:77 *239:116 0.000233169
105 *236:77 *239:129 9.50342e-06
106 *237:10 *239:20 0
*RES
1 *8553:X *239:8 5.43 
2 *239:8 *239:20 17.21 
3 *239:20 *239:36 13.84 
4 *239:36 *239:50 16.615 
5 *239:50 *9001:C1 14.255 
6 *239:50 *8592:B1 1.6 
7 *239:36 *8559:B1 3.445 
8 *239:20 *8554:B1 2.05 
9 *239:8 *239:88 12.345 
10 *239:88 *8925:A1 3.6 
11 *239:88 *239:103 6.245 
12 *239:103 *239:107 6.695 
13 *239:107 *8926:A1 3.6 
14 *239:107 *239:116 5.715 
15 *239:116 *8928:A1 7.17 
16 *239:116 *239:129 2.655 
17 *239:129 *8929:A1 5.685 
18 *239:129 *8927:A1 3.6 
19 *239:103 *8924:A1 6.115 
*END

*D_NET *240 0.00125175
*CONN
*I *8556:A I *D sky130_fd_sc_hd__clkbuf_1
*I *8555:X O *D sky130_fd_sc_hd__and2_1
*CAP
1 *8556:A 0.000410155
2 *8555:X 0.000410155
3 *8556:A *8700:A 0
4 *8556:A *9043:CLK 7.23602e-05
5 *8556:A *717:67 8.06286e-05
6 *8556:A *742:73 0
7 *9043:D *8556:A 0.000251595
8 *237:46 *8556:A 2.68526e-05
9 *239:50 *8556:A 0
*RES
1 *8555:X *8556:A 14.46 
*END

*D_NET *241 0.00111828
*CONN
*I *8718:A1 I *D sky130_fd_sc_hd__a211oi_1
*I *8558:B I *D sky130_fd_sc_hd__nor2_1
*I *8557:Y O *D sky130_fd_sc_hd__inv_2
*CAP
1 *8718:A1 0.000351623
2 *8558:B 2.58495e-05
3 *8557:Y 0.000118871
4 *241:8 0.000496344
5 *8558:B *8559:A2 4.9253e-06
6 *8718:A1 *8558:A 0
7 *8718:A1 *8730:A1 0
8 *8718:A1 *9044:RESET_B 4.18603e-06
9 *8718:A1 *742:73 0
10 *241:8 *8558:A 0.000102746
11 *241:8 *9044:RESET_B 1.37328e-05
*RES
1 *8557:Y *241:8 3.79 
2 *241:8 *8558:B 2.05 
3 *241:8 *8718:A1 11.06 
*END

*D_NET *242 0.0001799
*CONN
*I *8559:A2 I *D sky130_fd_sc_hd__o21a_1
*I *8558:Y O *D sky130_fd_sc_hd__nor2_1
*CAP
1 *8559:A2 6.33415e-05
2 *8558:Y 6.33415e-05
3 *8559:A2 *8559:A1 4.82919e-05
4 *8558:B *8559:A2 4.9253e-06
*RES
1 *8558:Y *8559:A2 3.995 
*END

*D_NET *243 0.005303
*CONN
*I *8775:A I *D sky130_fd_sc_hd__nand3_1
*I *8581:A1 I *D sky130_fd_sc_hd__o31a_1
*I *8992:A1 I *D sky130_fd_sc_hd__o311ai_1
*I *8790:A1 I *D sky130_fd_sc_hd__o31ai_1
*I *8560:Y O *D sky130_fd_sc_hd__inv_2
*CAP
1 *8775:A 7.71258e-05
2 *8581:A1 1.53239e-05
3 *8992:A1 0.000299989
4 *8790:A1 3.31234e-05
5 *8560:Y 5.3347e-05
6 *243:29 0.000481399
7 *243:12 0.000947888
8 *243:6 0.000879152
9 *8581:A1 *8992:A3 8.41307e-05
10 *8581:A1 *8992:C1 8.69583e-05
11 *8775:A *8776:A2 7.20869e-05
12 *8775:A *416:17 0.000184059
13 *8775:A *430:26 0
14 *8790:A1 *8794:A 0
15 *8790:A1 *8794:B 2.75145e-05
16 *8790:A1 *261:105 2.16833e-05
17 *8992:A1 *8588:A1 0.000165337
18 *8992:A1 *8588:A3 0
19 *8992:A1 *8992:B1 5.84991e-05
20 *8992:A1 *249:96 4.21677e-05
21 *243:6 *8560:A 2.49909e-05
22 *243:12 *8794:A 4.66826e-05
23 *243:12 *8794:B 6.79574e-05
24 *243:12 *8803:A 7.40016e-05
25 *243:12 *9189:A 0.000145184
26 *243:12 *261:105 0.000928529
27 *243:12 *436:10 0.000228848
28 *243:12 *718:8 0.000117116
29 *243:29 *8581:A2 0.000104063
30 *243:29 *8993:A1 4.03077e-06
31 *243:29 *249:96 0
32 *243:29 *252:61 3.18137e-05
*RES
1 *8560:Y *243:6 2.395 
2 *243:6 *243:12 17.385 
3 *243:12 *8790:A1 2.41 
4 *243:12 *243:29 5.21 
5 *243:29 *8992:A1 8.43 
6 *243:29 *8581:A1 4.395 
7 *243:6 *8775:A 7.745 
*END

*D_NET *244 0.00421588
*CONN
*I *8576:A I *D sky130_fd_sc_hd__and3_1
*I *8565:A I *D sky130_fd_sc_hd__nand4_4
*I *8777:A I *D sky130_fd_sc_hd__and3_1
*I *8584:A I *D sky130_fd_sc_hd__and3_1
*I *8795:A I *D sky130_fd_sc_hd__nand4_1
*I *8561:Y O *D sky130_fd_sc_hd__nor2_2
*CAP
1 *8576:A 4.33828e-05
2 *8565:A 0
3 *8777:A 0
4 *8584:A 0
5 *8795:A 4.17275e-05
6 *8561:Y 0.000640668
7 *244:36 0.000103188
8 *244:34 0.000210814
9 *244:22 0.000198832
10 *244:14 0.00073353
11 *8795:A *267:16 4.60819e-05
12 *244:14 *8561:B 3.09179e-05
13 *244:14 *8576:B 1.19928e-05
14 *244:14 *8828:B1 5.83121e-06
15 *244:14 *9035:CLK 0.000362264
16 *244:14 *247:14 0.000584156
17 *244:14 *247:28 2.33054e-05
18 *244:14 *259:16 1.83847e-05
19 *244:14 *589:53 2.75145e-05
20 *244:14 *719:16 0.000187759
21 *244:14 *757:22 0
22 *244:22 *8576:B 2.77985e-05
23 *244:22 *245:60 1.34503e-05
24 *244:22 *395:18 4.99619e-05
25 *244:34 *8777:B 3.67779e-05
26 *244:34 *8777:C 2.52125e-05
27 *244:34 *8797:A 1.44259e-05
28 *244:34 *245:45 2.86623e-05
29 *244:34 *245:60 3.03775e-05
30 *244:34 *246:33 8.65905e-05
31 *244:34 *247:30 3.1135e-05
32 *244:34 *258:40 0
33 *244:34 *267:16 5.4155e-06
34 *244:34 *395:18 8.40269e-05
35 *244:34 *419:10 0.000137571
36 *244:36 *8565:D 5.9117e-05
37 *244:36 *246:33 2.38673e-05
38 *244:36 *247:30 0.000151486
39 *244:36 *267:16 9.02174e-05
40 *9036:D *244:14 4.94404e-05
*RES
1 *8561:Y *244:14 19.97 
2 *244:14 *244:22 1.47 
3 *244:22 *244:34 8.35 
4 *244:34 *244:36 2.175 
5 *244:36 *8795:A 2.41 
6 *244:36 *8584:A 1.6 
7 *244:34 *8777:A 1.6 
8 *244:22 *8565:A 1.6 
9 *244:14 *8576:A 2.41 
*END

*D_NET *245 0.00365335
*CONN
*I *8576:B I *D sky130_fd_sc_hd__and3_1
*I *8797:A I *D sky130_fd_sc_hd__and3_1
*I *8777:B I *D sky130_fd_sc_hd__and3_1
*I *8565:B I *D sky130_fd_sc_hd__nand4_4
*I *8754:A I *D sky130_fd_sc_hd__nand2_1
*I *8795:B I *D sky130_fd_sc_hd__nand4_1
*I *8562:Y O *D sky130_fd_sc_hd__nor2_2
*CAP
1 *8576:B 9.83314e-05
2 *8797:A 7.42189e-05
3 *8777:B 9.63414e-05
4 *8565:B 2.08101e-05
5 *8754:A 3.88352e-05
6 *8795:B 5.74715e-05
7 *8562:Y 0.000154946
8 *245:60 0.000327906
9 *245:45 0.000322705
10 *245:32 0.00024638
11 *245:21 0.000280416
12 *245:8 0.000299437
13 *8754:A *8754:B 5.22973e-05
14 *8777:B *246:33 8.65905e-05
15 *8777:B *258:40 3.86607e-05
16 *8795:B *267:16 8.65961e-05
17 *8797:A *258:40 0
18 *8797:A *261:83 0.000162318
19 *8797:A *419:10 3.67779e-05
20 *245:8 *8585:C_N 0.000117832
21 *245:8 *8757:C1 7.23602e-05
22 *245:8 *8799:A1 4.11194e-05
23 *245:8 *759:12 5.29131e-05
24 *245:21 *8757:C1 4.21314e-05
25 *245:21 *8795:C 7.97205e-05
26 *245:21 *8799:A1 2.97004e-06
27 *245:21 *248:18 7.4027e-05
28 *245:21 *251:76 4.9968e-05
29 *245:21 *251:110 0.000141606
30 *245:32 *8565:D 0.000122325
31 *245:32 *8754:B 4.21973e-05
32 *245:32 *395:18 5.55342e-05
33 *245:45 *258:40 2.4997e-05
34 *245:45 *395:18 6.97118e-05
35 *245:60 *395:18 1.9415e-05
36 *244:14 *8576:B 1.19928e-05
37 *244:22 *8576:B 2.77985e-05
38 *244:22 *245:60 1.34503e-05
39 *244:34 *8777:B 3.67779e-05
40 *244:34 *8797:A 1.44259e-05
41 *244:34 *245:45 2.86623e-05
42 *244:34 *245:60 3.03775e-05
*RES
1 *8562:Y *245:8 7.02 
2 *245:8 *8795:B 4.395 
3 *245:8 *245:21 4.655 
4 *245:21 *8754:A 2.41 
5 *245:21 *245:32 2.865 
6 *245:32 *8565:B 1.96 
7 *245:32 *245:45 3.755 
8 *245:45 *8777:B 5.265 
9 *245:45 *245:60 3.83 
10 *245:60 *8797:A 7.49 
11 *245:60 *8576:B 2.74 
*END

*D_NET *246 0.00239537
*CONN
*I *8797:B I *D sky130_fd_sc_hd__and3_1
*I *8584:B I *D sky130_fd_sc_hd__and3_1
*I *8565:C I *D sky130_fd_sc_hd__nand4_4
*I *8777:C I *D sky130_fd_sc_hd__and3_1
*I *8563:Y O *D sky130_fd_sc_hd__nor2_1
*CAP
1 *8797:B 0
2 *8584:B 0
3 *8565:C 4.49258e-05
4 *8777:C 3.17699e-05
5 *8563:Y 0.00035233
6 *246:33 0.000207173
7 *246:16 0.000278375
8 *246:12 0.000436688
9 *8565:C *8565:D 0.000139238
10 *8565:C *258:40 7.63204e-05
11 *8777:C *247:28 0
12 *8777:C *247:30 4.12186e-05
13 *246:12 *247:28 1.17409e-05
14 *246:12 *260:26 2.05641e-05
15 *246:12 *260:45 9.77587e-05
16 *246:12 *430:36 0.000247567
17 *246:16 *247:28 3.85202e-05
18 *246:16 *247:30 5.41594e-05
19 *246:16 *419:10 2.30292e-05
20 *246:33 *267:16 6.0078e-05
21 *246:33 *419:10 1.16578e-05
22 *8777:B *246:33 8.65905e-05
23 *244:34 *8777:C 2.52125e-05
24 *244:34 *246:33 8.65905e-05
25 *244:36 *246:33 2.38673e-05
*RES
1 *8563:Y *246:12 11.375 
2 *246:12 *246:16 2.1 
3 *246:16 *8777:C 2.58625 
4 *246:16 *246:33 3.345 
5 *246:33 *8565:C 7.235 
6 *246:33 *8584:B 1.6 
7 *246:12 *8797:B 1.6 
*END

*D_NET *247 0.00445803
*CONN
*I *8576:C I *D sky130_fd_sc_hd__and3_1
*I *8797:C I *D sky130_fd_sc_hd__and3_1
*I *8584:C I *D sky130_fd_sc_hd__and3_1
*I *8565:D I *D sky130_fd_sc_hd__nand4_4
*I *8564:Y O *D sky130_fd_sc_hd__nor2_2
*CAP
1 *8576:C 0
2 *8797:C 5.26917e-06
3 *8584:C 0
4 *8565:D 0.000137964
5 *8564:Y 0.000386537
6 *247:30 0.000414957
7 *247:28 0.000453322
8 *247:14 0.000557597
9 *8565:D *258:40 4.2857e-05
10 *8565:D *395:18 0.000122325
11 *8565:D *441:12 0.000249928
12 *247:14 *452:14 0.000277029
13 *247:14 *719:16 0.000277029
14 *247:28 *259:16 9.61344e-05
15 *247:28 *260:45 0
16 *247:28 *718:10 0.000180675
17 *8565:C *8565:D 0.000139238
18 *8777:C *247:28 0
19 *8777:C *247:30 4.12186e-05
20 *244:14 *247:14 0.000584156
21 *244:14 *247:28 2.33054e-05
22 *244:34 *247:30 3.1135e-05
23 *244:36 *8565:D 5.9117e-05
24 *244:36 *247:30 0.000151486
25 *245:32 *8565:D 0.000122325
26 *246:12 *247:28 1.17409e-05
27 *246:16 *247:28 3.85202e-05
28 *246:16 *247:30 5.41594e-05
*RES
1 *8564:Y *247:14 14.63 
2 *247:14 *247:28 8.05 
3 *247:28 *247:30 3.8025 
4 *247:30 *8565:D 10.1975 
5 *247:30 *8584:C 1.6 
6 *247:28 *8797:C 1.765 
7 *247:14 *8576:C 1.6 
*END

*D_NET *248 0.00942585
*CONN
*I *8566:A I *D sky130_fd_sc_hd__clkbuf_4
*I *8772:A_N I *D sky130_fd_sc_hd__nand4b_2
*I *8792:A_N I *D sky130_fd_sc_hd__nand4b_1
*I *8766:A_N I *D sky130_fd_sc_hd__nand4b_2
*I *8764:A_N I *D sky130_fd_sc_hd__nand4b_2
*I *8770:A_N I *D sky130_fd_sc_hd__nand4b_2
*I *8565:Y O *D sky130_fd_sc_hd__nand4_4
*CAP
1 *8566:A 0
2 *8772:A_N 4.08216e-05
3 *8792:A_N 4.43779e-05
4 *8766:A_N 0.000220084
5 *8764:A_N 0
6 *8770:A_N 0.000250632
7 *8565:Y 0.000418397
8 *248:76 0.000387354
9 *248:57 0.000595842
10 *248:49 0.000650994
11 *248:32 0.000939381
12 *248:18 0.000969923
13 *8766:A_N *8568:D 0
14 *8766:A_N *8765:C_N 0
15 *8766:A_N *8766:B 6.06899e-05
16 *8766:A_N *8766:C 1.08758e-05
17 *8766:A_N *8766:D 6.90876e-05
18 *8766:A_N *8792:C 1.34594e-05
19 *8766:A_N *8818:B1 0.000197208
20 *8766:A_N *408:10 0
21 *8766:A_N *599:91 6.07575e-06
22 *8766:A_N *600:14 0.000290467
23 *8770:A_N *8750:A_N 8.25609e-05
24 *8770:A_N *8750:D 4.92096e-05
25 *8770:A_N *8759:B 0
26 *8770:A_N *8812:B1 4.62396e-05
27 *8770:A_N *8815:B1 8.65905e-05
28 *8770:A_N *393:29 1.22762e-05
29 *8772:A_N *8574:B 2.75229e-05
30 *8772:A_N *8574:D 1.16578e-05
31 *8792:A_N *8582:B 0
32 *8792:A_N *8582:C_N 1.37328e-05
33 *8792:A_N *8792:C 5.87405e-05
34 *248:18 *8575:A 0.000199033
35 *248:18 *8586:A 0
36 *248:18 *8586:B 1.83756e-05
37 *248:18 *8795:C 7.4027e-05
38 *248:18 *8795:D 4.66108e-05
39 *248:18 *251:74 0.000545352
40 *248:18 *258:6 0.000108207
41 *248:18 *258:23 2.76356e-05
42 *248:18 *267:16 0.000100408
43 *248:32 *8571:B 0.000653913
44 *248:32 *8575:A 8.27449e-05
45 *248:32 *260:92 3.09233e-05
46 *248:32 *260:115 0.000173984
47 *248:32 *393:8 0.000307417
48 *248:32 *412:29 0.00015997
49 *248:32 *603:37 2.96426e-05
50 *248:49 *8574:B 2.46007e-05
51 *248:49 *8750:D 3.983e-05
52 *248:49 *253:33 0
53 *248:49 *393:29 5.11148e-06
54 *248:49 *598:29 0.0001032
55 *248:57 *8574:D 4.05358e-05
56 *248:57 *8582:C_N 0.00035825
57 *248:57 *8764:D 2.34345e-05
58 *248:57 *251:10 0
59 *248:57 *251:12 0
60 *248:57 *404:19 0.000290461
61 *248:57 *598:29 0
62 *248:57 *598:56 9.358e-05
63 *248:76 *8582:C_N 5.37955e-05
64 *248:76 *8792:B 3.79595e-05
65 *248:76 *8792:D 0.000118063
66 *248:76 *250:69 5.05566e-05
67 *245:21 *248:18 7.4027e-05
*RES
1 *8565:Y *248:18 15.845 
2 *248:18 *248:32 17.775 
3 *248:32 *8770:A_N 8.07 
4 *248:32 *248:49 5.195 
5 *248:49 *248:57 11.165 
6 *248:57 *8764:A_N 3.6 
7 *248:57 *248:76 5 
8 *248:76 *8766:A_N 11.6 
9 *248:76 *8792:A_N 3.115 
10 *248:49 *8772:A_N 2.395 
11 *248:18 *8566:A 1.6 
*END

*D_NET *249 0.0119818
*CONN
*I *8805:A2 I *D sky130_fd_sc_hd__o311a_1
*I *8590:A2 I *D sky130_fd_sc_hd__o311a_1
*I *8752:A2 I *D sky130_fd_sc_hd__o311ai_4
*I *8581:A2 I *D sky130_fd_sc_hd__o31a_1
*I *8790:A2 I *D sky130_fd_sc_hd__o31ai_1
*I *8992:A2 I *D sky130_fd_sc_hd__o311ai_1
*I *8786:A1 I *D sky130_fd_sc_hd__o311a_1
*I *8583:A_N I *D sky130_fd_sc_hd__nand4b_1
*I *8751:A_N I *D sky130_fd_sc_hd__nand3b_4
*I *8760:A_N I *D sky130_fd_sc_hd__nand4b_1
*I *8566:X O *D sky130_fd_sc_hd__clkbuf_4
*CAP
1 *8805:A2 0
2 *8590:A2 0.000151293
3 *8752:A2 3.92046e-05
4 *8581:A2 0.000121995
5 *8790:A2 0
6 *8992:A2 0
7 *8786:A1 0
8 *8583:A_N 0.000275318
9 *8751:A_N 0.000347503
10 *8760:A_N 0.000324029
11 *8566:X 0
12 *249:139 0.000303055
13 *249:135 0.000258661
14 *249:109 0.00029633
15 *249:105 0.000345929
16 *249:96 0.000479583
17 *249:79 0.000532377
18 *249:56 0.000536537
19 *249:33 0.000889488
20 *249:6 0.000683082
21 *8581:A2 *8794:B 2.87433e-05
22 *8581:A2 *252:22 1.52184e-05
23 *8581:A2 *252:46 5.65627e-05
24 *8583:A_N *8574:C 8.34281e-06
25 *8583:A_N *8582:A 3.60024e-06
26 *8583:A_N *8582:C_N 2.03321e-05
27 *8583:A_N *8583:B 8.40269e-05
28 *8583:A_N *8583:D 6.24477e-05
29 *8583:A_N *8780:B 4.2236e-05
30 *8583:A_N *8786:A2 6.97202e-05
31 *8583:A_N *8800:B 2.61183e-06
32 *8583:A_N *255:14 1.72945e-05
33 *8583:A_N *255:23 3.70355e-05
34 *8583:A_N *406:29 0.000158965
35 *8590:A2 *8590:A3 0.000195492
36 *8590:A2 *8993:B1 0.000153794
37 *8590:A2 *252:65 8.53113e-06
38 *8751:A_N *8571:B 0.000197826
39 *8751:A_N *8574:C 7.23533e-05
40 *8751:A_N *250:31 4.31189e-05
41 *8751:A_N *251:14 3.9774e-05
42 *8751:A_N *251:16 8.30853e-06
43 *8751:A_N *253:33 0
44 *8751:A_N *260:115 9.54469e-05
45 *8751:A_N *412:29 3.69421e-05
46 *8751:A_N *603:37 0.000401778
47 *8752:A2 *8590:C1 6.27347e-05
48 *8752:A2 *8752:A1 0.00016063
49 *8760:A_N *8571:B 0
50 *8760:A_N *8760:B 0.000120655
51 *8760:A_N *8761:B1 1.08758e-05
52 *8760:A_N *8768:A 0
53 *8760:A_N *8796:B 0.000138385
54 *8760:A_N *260:115 0
55 *8760:A_N *401:18 2.81948e-05
56 *8760:A_N *427:18 0
57 *249:33 *251:74 0.000384639
58 *249:33 *412:29 0
59 *249:33 *427:18 0
60 *249:56 *8574:C 0.000446527
61 *249:56 *8779:A 6.36438e-07
62 *249:56 *8786:A2 1.15688e-05
63 *249:56 *250:31 0.000101345
64 *249:56 *250:42 9.50342e-06
65 *249:56 *260:115 0.000284216
66 *249:56 *412:29 3.60648e-06
67 *249:79 *8786:A2 0.000156901
68 *249:79 *250:42 5.46798e-05
69 *249:79 *266:12 0
70 *249:79 *406:12 0
71 *249:96 *8786:A2 9.50342e-06
72 *249:96 *8786:B1 0
73 *249:96 *8787:B 2.05056e-05
74 *249:96 *8787:C 1.56428e-05
75 *249:96 *8787:D 7.06865e-05
76 *249:96 *8788:B2 0.000312754
77 *249:96 *8793:B 6.02202e-05
78 *249:96 *8793:C 4.14782e-05
79 *249:96 *8987:C 0
80 *249:96 *8992:B1 3.54936e-05
81 *249:96 *8993:A1 5.53249e-06
82 *249:96 *266:12 5.83121e-06
83 *249:96 *393:48 1.07797e-05
84 *249:105 *8788:B2 6.45236e-05
85 *249:105 *8993:A1 3.86529e-05
86 *249:109 *8794:B 0.000252651
87 *249:135 *8788:B2 0.000263497
88 *249:135 *8805:A1 2.16833e-05
89 *249:135 *8806:A 0.000225285
90 *249:135 *8993:A1 0.000149749
91 *249:135 *252:61 0.00018955
92 *249:139 *8588:B1 0.000180682
93 *249:139 *8993:B1 0.00013521
94 *249:139 *252:65 0.000305687
95 *8992:A1 *249:96 4.21677e-05
96 *243:29 *8581:A2 0.000104063
97 *243:29 *249:96 0
*RES
1 *8566:X *249:6 3.6 
2 *249:6 *8760:A_N 9.525 
3 *249:6 *249:33 8.935 
4 *249:33 *8751:A_N 14.71 
5 *249:33 *249:56 6.165 
6 *249:56 *8583:A_N 12.94 
7 *249:56 *249:79 1.89 
8 *249:79 *8786:A1 3.6 
9 *249:79 *249:96 11.92 
10 *249:96 *8992:A2 3.6 
11 *249:96 *249:105 0.87 
12 *249:105 *249:109 4.3475 
13 *249:109 *8790:A2 1.6 
14 *249:109 *8581:A2 7.9625 
15 *249:105 *249:135 7.34 
16 *249:135 *249:139 5.675 
17 *249:139 *8752:A2 5.085 
18 *249:139 *8590:A2 7.005 
19 *249:135 *8805:A2 1.6 
*END

*D_NET *250 0.0116318
*CONN
*I *8569:A I *D sky130_fd_sc_hd__nand2_4
*I *8778:C I *D sky130_fd_sc_hd__nand4_1
*I *8583:B I *D sky130_fd_sc_hd__nand4b_1
*I *8792:B I *D sky130_fd_sc_hd__nand4b_1
*I *8766:B I *D sky130_fd_sc_hd__nand4b_2
*I *8764:B I *D sky130_fd_sc_hd__nand4b_2
*I *8780:A I *D sky130_fd_sc_hd__nand2_1
*I *8757:B1 I *D sky130_fd_sc_hd__o211ai_1
*I *8567:Y O *D sky130_fd_sc_hd__nor4_4
*CAP
1 *8569:A 0
2 *8778:C 6.30098e-05
3 *8583:B 9.95407e-05
4 *8792:B 4.03399e-05
5 *8766:B 0.000286925
6 *8764:B 0
7 *8780:A 0
8 *8757:B1 0.0013029
9 *8567:Y 1.65155e-05
10 *250:112 0.000969731
11 *250:69 0.000587073
12 *250:50 0.000415791
13 *250:44 0.000343227
14 *250:42 0.00104945
15 *250:31 0.000595143
16 *250:8 0.00185954
17 *8583:B *8582:A 2.09283e-05
18 *8583:B *8819:B1 5.16418e-05
19 *8583:B *255:23 8.58063e-05
20 *8583:B *266:12 7.23533e-05
21 *8583:B *406:12 6.28498e-05
22 *8757:B1 *8757:C1 8.7152e-06
23 *8757:B1 *8799:A2 5.02814e-06
24 *8766:B *8766:C 0.000114498
25 *8766:B *8818:B1 0.000128553
26 *8766:B *600:25 0
27 *8778:C *263:14 0.000117825
28 *8778:C *759:12 6.47516e-05
29 *8792:B *8582:C_N 2.9868e-05
30 *8792:B *8583:D 1.01661e-05
31 *8792:B *8792:D 2.34423e-05
32 *250:8 *412:29 2.00134e-05
33 *250:8 *597:50 4.12756e-05
34 *250:31 *8772:D 0.000175952
35 *250:31 *8814:B1 2.23407e-05
36 *250:31 *8819:B1 0.000248261
37 *250:31 *260:115 0.000379663
38 *250:31 *412:29 0.000103478
39 *250:31 *414:27 0.00013999
40 *250:31 *597:50 1.03592e-05
41 *250:42 *8819:B1 2.15594e-05
42 *250:42 *406:12 3.67779e-05
43 *250:44 *8764:D 1.08758e-05
44 *250:44 *8786:A3 4.82863e-05
45 *250:44 *406:12 1.19928e-05
46 *250:44 *408:10 7.68414e-06
47 *250:50 *8582:A 3.39014e-05
48 *250:50 *8583:D 0
49 *250:50 *8764:D 0.000155462
50 *250:69 *8582:A 7.01303e-05
51 *250:69 *8582:C_N 6.03272e-05
52 *250:69 *8583:D 0
53 *250:69 *408:10 0.000230626
54 *250:112 *8786:A3 0.000158072
55 *250:112 *8786:B1 2.93678e-05
56 *250:112 *8793:B 2.07305e-05
57 *250:112 *8802:D 3.81908e-06
58 *250:112 *8987:D 0.000221235
59 *250:112 *252:12 2.75229e-05
60 *250:112 *427:22 0.000455319
61 *250:112 *443:6 1.93032e-05
62 *8583:A_N *8583:B 8.40269e-05
63 *8751:A_N *250:31 4.31189e-05
64 *8766:A_N *8766:B 6.06899e-05
65 *248:76 *8792:B 3.79595e-05
66 *248:76 *250:69 5.05566e-05
67 *249:56 *250:31 0.000101345
68 *249:56 *250:42 9.50342e-06
69 *249:79 *250:42 5.46798e-05
*RES
1 *8567:Y *250:8 4.0875 
2 *250:8 *8757:B1 6.85157 
3 *250:8 *250:31 12.3825 
4 *250:31 *8780:A 3.6 
5 *250:31 *250:42 3.38 
6 *250:42 *250:44 1.14 
7 *250:44 *250:50 4.1 
8 *250:50 *8764:B 3.6 
9 *250:50 *250:69 8.2375 
10 *250:69 *8766:B 6.55337 
11 *250:69 *8792:B 4.5975 
12 *250:44 *8583:B 8.225 
13 *250:42 *250:112 11.76 
14 *250:112 *8778:C 6.98 
15 *250:112 *8569:A 1.6 
*END

*D_NET *251 0.0109549
*CONN
*I *8778:D I *D sky130_fd_sc_hd__nand4_1
*I *8569:B I *D sky130_fd_sc_hd__nand2_4
*I *8795:D I *D sky130_fd_sc_hd__nand4_1
*I *8757:C1 I *D sky130_fd_sc_hd__o211ai_1
*I *8772:C I *D sky130_fd_sc_hd__nand4b_2
*I *8751:B I *D sky130_fd_sc_hd__nand3b_4
*I *8760:B I *D sky130_fd_sc_hd__nand4b_1
*I *8770:C I *D sky130_fd_sc_hd__nand4b_2
*I *8568:Y O *D sky130_fd_sc_hd__nor4_4
*CAP
1 *8778:D 0
2 *8569:B 0.000148171
3 *8795:D 1.36534e-05
4 *8757:C1 0.000329354
5 *8772:C 0
6 *8751:B 0
7 *8760:B 0.000323611
8 *8770:C 0.000216397
9 *8568:Y 0.000390187
10 *251:110 0.000358033
11 *251:76 0.000359653
12 *251:74 0.000781348
13 *251:16 0.000646688
14 *251:14 0.000209113
15 *251:12 0.00014225
16 *251:10 0.000984843
17 *8569:B *8779:C 0.00019637
18 *8569:B *8820:B1 7.1866e-05
19 *8569:B *8987:D 3.09233e-05
20 *8569:B *442:24 8.97564e-05
21 *8757:C1 *8585:C_N 0
22 *8757:C1 *8799:A1 5.16348e-05
23 *8757:C1 *8799:A2 0.000141632
24 *8757:C1 *258:36 0.00019637
25 *8757:C1 *441:12 9.77943e-05
26 *8757:C1 *759:12 0.000117832
27 *8760:B *8567:D 0.000149534
28 *8760:B *8571:A 0.000119242
29 *8760:B *8751:C 4.66108e-05
30 *8760:B *8761:B1 2.41368e-05
31 *8760:B *400:12 8.7152e-06
32 *8760:B *401:18 1.81431e-05
33 *8760:B *596:72 2.97023e-05
34 *8760:B *597:50 6.52265e-05
35 *8770:C *8750:A_N 7.49443e-05
36 *8770:C *8759:A_N 0.000139969
37 *8770:C *8759:B 0.000309803
38 *8770:C *8770:B 4.91067e-05
39 *8770:C *8771:A 0
40 *8770:C *8814:B1 0.000198118
41 *8770:C *412:29 0
42 *8770:C *597:42 0
43 *8795:D *267:16 4.66108e-05
44 *251:10 *8574:D 0
45 *251:10 *8582:A 0.000156973
46 *251:10 *8819:B1 6.94735e-06
47 *251:10 *255:14 0.000234353
48 *251:10 *255:23 7.20899e-05
49 *251:10 *414:27 0.000217652
50 *251:12 *8574:D 0
51 *251:12 *8814:B1 2.61042e-05
52 *251:12 *414:27 1.01155e-05
53 *251:14 *8751:C 9.09788e-06
54 *251:14 *8814:B1 7.32138e-05
55 *251:14 *253:33 0
56 *251:16 *8751:C 0.000132462
57 *251:16 *8814:B1 1.1008e-05
58 *251:74 *8574:D 0.00020759
59 *251:74 *8575:A 0.000229333
60 *251:74 *260:115 2.32597e-05
61 *251:74 *269:10 0.000232111
62 *251:74 *414:8 8.49205e-05
63 *251:76 *759:12 4.21314e-05
64 *251:110 *8795:C 1.52945e-05
65 *251:110 *263:14 2.78732e-05
66 *251:110 *441:12 0
67 *251:110 *759:12 0.000504887
68 *8751:A_N *251:14 3.9774e-05
69 *8751:A_N *251:16 8.30853e-06
70 *8757:B1 *8757:C1 8.7152e-06
71 *8760:A_N *8760:B 0.000120655
72 *245:8 *8757:C1 7.23602e-05
73 *245:21 *8757:C1 4.21314e-05
74 *245:21 *251:76 4.9968e-05
75 *245:21 *251:110 0.000141606
76 *248:18 *8795:D 4.66108e-05
77 *248:18 *251:74 0.000545352
78 *248:57 *251:10 0
79 *248:57 *251:12 0
80 *249:33 *251:74 0.000384639
*RES
1 *8568:Y *251:10 11.67 
2 *251:10 *251:12 0.87 
3 *251:12 *251:14 1.89 
4 *251:14 *251:16 2.0175 
5 *251:16 *8770:C 9.9075 
6 *251:16 *8760:B 13.405 
7 *251:14 *8751:B 3.6 
8 *251:12 *8772:C 3.6 
9 *251:10 *251:74 16.99 
10 *251:74 *251:76 0.615 
11 *251:76 *8757:C1 14.275 
12 *251:76 *8795:D 4.05 
13 *251:74 *251:110 7.97 
14 *251:110 *8569:B 9.32 
15 *251:110 *8778:D 1.6 
*END

*D_NET *252 0.00720773
*CONN
*I *8832:A I *D sky130_fd_sc_hd__or3b_1
*I *8805:A3 I *D sky130_fd_sc_hd__o311a_1
*I *8590:A3 I *D sky130_fd_sc_hd__o311a_1
*I *8752:A3 I *D sky130_fd_sc_hd__o311ai_4
*I *8790:A3 I *D sky130_fd_sc_hd__o31ai_1
*I *8581:A3 I *D sky130_fd_sc_hd__o31a_1
*I *8992:A3 I *D sky130_fd_sc_hd__o311ai_1
*I *8569:Y O *D sky130_fd_sc_hd__nand2_4
*CAP
1 *8832:A 0.000578146
2 *8805:A3 0
3 *8590:A3 0.000101079
4 *8752:A3 0
5 *8790:A3 3.38751e-05
6 *8581:A3 0
7 *8992:A3 9.99825e-05
8 *8569:Y 6.71128e-05
9 *252:65 0.000229608
10 *252:61 0.000498986
11 *252:46 0.000446808
12 *252:24 9.99825e-05
13 *252:22 0.00036491
14 *252:12 0.000967694
15 *8590:A3 *8590:A1 0.000200406
16 *8590:A3 *8590:B1 4.00541e-06
17 *8590:A3 *261:122 9.50342e-06
18 *8790:A3 *8794:B 4.82863e-05
19 *8832:A *8832:C_N 0.000196381
20 *8992:A3 *8588:A1 0.00010149
21 *8992:A3 *8588:A3 0.000347304
22 *8992:A3 *8992:B1 4.66108e-05
23 *8992:A3 *8992:C1 6.62088e-05
24 *252:12 *442:24 0.000185405
25 *252:12 *443:6 1.56428e-05
26 *252:12 *759:12 0.000183738
27 *252:22 *8790:B1 3.09164e-05
28 *252:22 *8802:C 0.00015806
29 *252:22 *8987:C 3.48266e-05
30 *252:22 *269:31 0
31 *252:22 *444:16 0.000266952
32 *252:22 *761:16 0
33 *252:46 *8790:B1 0.000114492
34 *252:61 *8790:B1 7.23602e-05
35 *252:61 *8805:A1 1.08758e-05
36 *252:61 *8805:C1 9.65132e-06
37 *252:61 *8806:A 8.58927e-05
38 *252:61 *8993:A1 0
39 *252:61 *8994:C 0.000159947
40 *252:61 *761:28 6.44872e-05
41 *252:65 *8588:B1 1.34361e-05
42 *252:65 *261:122 0.000325718
43 *8581:A1 *8992:A3 8.41307e-05
44 *8581:A2 *252:22 1.52184e-05
45 *8581:A2 *252:46 5.65627e-05
46 *8590:A2 *8590:A3 0.000195492
47 *8590:A2 *252:65 8.53113e-06
48 *8805:B1 *252:61 4.66108e-05
49 *188:25 *8590:A3 5.83121e-06
50 *243:29 *252:61 3.18137e-05
51 *249:135 *252:61 0.00018955
52 *249:139 *252:65 0.000305687
53 *250:112 *252:12 2.75229e-05
*RES
1 *8569:Y *252:12 8.195 
2 *252:12 *252:22 8.165 
3 *252:22 *252:24 2 
4 *252:24 *8992:A3 5.81875 
5 *252:24 *8581:A3 1.6 
6 *252:22 *252:46 1.38 
7 *252:46 *8790:A3 4.05 
8 *252:46 *252:61 9.845 
9 *252:61 *252:65 5.93 
10 *252:65 *8752:A3 3.6 
11 *252:65 *8590:A3 6.645 
12 *252:61 *8805:A3 1.6 
13 *252:12 *8832:A 10.33 
*END

*D_NET *253 0.00330584
*CONN
*I *8772:B I *D sky130_fd_sc_hd__nand4b_2
*I *8574:A I *D sky130_fd_sc_hd__and4_1
*I *8770:B I *D sky130_fd_sc_hd__nand4b_2
*I *8570:Y O *D sky130_fd_sc_hd__nor2_1
*CAP
1 *8772:B 0
2 *8574:A 8.27122e-05
3 *8770:B 0.000177949
4 *8570:Y 0.000210319
5 *253:33 0.000315115
6 *253:12 0.00062067
7 *8574:A *8574:B 0.000230483
8 *8574:A *8574:D 0.000122668
9 *8770:B *8571:A 2.92496e-05
10 *8770:B *8750:A_N 8.49205e-05
11 *8770:B *8759:A_N 0
12 *8770:B *8759:B 9.78953e-05
13 *8770:B *8770:D 4.18603e-06
14 *8770:B *412:29 1.37328e-05
15 *253:12 *8570:A 8.65961e-05
16 *253:12 *8571:A 4.66108e-05
17 *253:12 *8750:A_N 0.00016063
18 *253:12 *8750:D 0.000123225
19 *253:12 *8751:C 0.000158066
20 *253:12 *587:33 1.47256e-05
21 *253:12 *587:42 9.80943e-06
22 *253:12 *595:37 0.000233226
23 *253:33 *8571:A 0.000145029
24 *253:33 *8574:B 0.000111211
25 *253:33 *8574:D 0.000160314
26 *253:33 *8750:D 1.73877e-05
27 *8751:A_N *253:33 0
28 *8770:C *8770:B 4.91067e-05
29 *248:49 *253:33 0
30 *251:14 *253:33 0
*RES
1 *8570:Y *253:12 9.345 
2 *253:12 *8770:B 7.515 
3 *253:12 *253:33 7.16 
4 *253:33 *8574:A 4.135 
5 *253:33 *8772:B 1.6 
*END

*D_NET *254 0.00212202
*CONN
*I *8574:B I *D sky130_fd_sc_hd__and4_1
*I *8750:D I *D sky130_fd_sc_hd__and4bb_1
*I *8571:Y O *D sky130_fd_sc_hd__nor2_1
*CAP
1 *8574:B 0.000449404
2 *8750:D 0.000149103
3 *8571:Y 0
4 *254:6 0.000598507
5 *8574:B *8574:D 3.57929e-05
6 *8574:B *260:115 4.82863e-05
7 *8750:D *8571:A 9.25593e-05
8 *8750:D *595:37 0.0001249
9 *8574:A *8574:B 0.000230483
10 *8770:A_N *8750:D 4.92096e-05
11 *8772:A_N *8574:B 2.75229e-05
12 *248:49 *8574:B 2.46007e-05
13 *248:49 *8750:D 3.983e-05
14 *253:12 *8750:D 0.000123225
15 *253:33 *8574:B 0.000111211
16 *253:33 *8750:D 1.73877e-05
*RES
1 *8571:Y *254:6 3.6 
2 *254:6 *8750:D 7.395 
3 *254:6 *8574:B 9.75 
*END

*D_NET *255 0.00464483
*CONN
*I *8792:C I *D sky130_fd_sc_hd__nand4b_1
*I *8780:B I *D sky130_fd_sc_hd__nand2_1
*I *8574:C I *D sky130_fd_sc_hd__and4_1
*I *8583:C I *D sky130_fd_sc_hd__nand4b_1
*I *8572:Y O *D sky130_fd_sc_hd__nor2_1
*CAP
1 *8792:C 0.000240849
2 *8780:B 2.34696e-05
3 *8574:C 0.000229905
4 *8583:C 1.41562e-05
5 *8572:Y 0.000149852
6 *255:23 0.000300459
7 *255:14 0.000240231
8 *255:10 0.000569691
9 *8574:C *8786:A2 0.000120655
10 *8574:C *412:29 0.000280826
11 *8574:C *414:27 0.000192125
12 *8583:C *8583:D 9.13949e-06
13 *8792:C *8568:B 0
14 *8792:C *8568:D 0.000278796
15 *8792:C *8582:B 0
16 *8792:C *8792:D 0.000194732
17 *8792:C *599:91 0.00012657
18 *8792:C *600:25 0
19 *255:10 *8568:B 0
20 *255:10 *8572:A 6.84761e-05
21 *255:10 *8573:B 1.83756e-05
22 *255:10 *8764:D 0.000244456
23 *255:10 *8792:D 6.36578e-05
24 *255:10 *599:58 4.96048e-05
25 *255:14 *8568:D 6.71882e-05
26 *255:14 *8583:D 7.33706e-05
27 *8583:A_N *8574:C 8.34281e-06
28 *8583:A_N *8780:B 4.2236e-05
29 *8583:A_N *255:14 1.72945e-05
30 *8583:A_N *255:23 3.70355e-05
31 *8583:B *255:23 8.58063e-05
32 *8751:A_N *8574:C 7.23533e-05
33 *8766:A_N *8792:C 1.34594e-05
34 *8792:A_N *8792:C 5.87405e-05
35 *249:56 *8574:C 0.000446527
36 *251:10 *255:14 0.000234353
37 *251:10 *255:23 7.20899e-05
*RES
1 *8572:Y *255:10 7.41 
2 *255:10 *255:14 5.9 
3 *255:14 *8583:C 1.96 
4 *255:14 *255:23 1.485 
5 *255:23 *8574:C 13.76 
6 *255:23 *8780:B 2.3725 
7 *255:10 *8792:C 9.54 
*END

*D_NET *256 0.00142038
*CONN
*I *8574:D I *D sky130_fd_sc_hd__and4_1
*I *8573:Y O *D sky130_fd_sc_hd__nor2_1
*CAP
1 *8574:D 0.000287634
2 *8573:Y 0.000287634
3 *8574:D *260:115 6.97118e-05
4 *8574:D *414:8 0.000196842
5 *8574:A *8574:D 0.000122668
6 *8574:B *8574:D 3.57929e-05
7 *8772:A_N *8574:D 1.16578e-05
8 *248:57 *8574:D 4.05358e-05
9 *251:10 *8574:D 0
10 *251:12 *8574:D 0
11 *251:74 *8574:D 0.00020759
12 *253:33 *8574:D 0.000160314
*RES
1 *8573:Y *8574:D 14.67 
*END

*D_NET *257 0.000705577
*CONN
*I *8575:A I *D sky130_fd_sc_hd__buf_2
*I *8574:X O *D sky130_fd_sc_hd__and4_1
*CAP
1 *8575:A 7.30898e-05
2 *8574:X 7.30898e-05
3 *8575:A *260:115 4.82863e-05
4 *248:18 *8575:A 0.000199033
5 *248:32 *8575:A 8.27449e-05
6 *251:74 *8575:A 0.000229333
*RES
1 *8574:X *8575:A 6.755 
*END

*D_NET *258 0.0057473
*CONN
*I *8824:A I *D sky130_fd_sc_hd__nand2_1
*I *8798:C1 I *D sky130_fd_sc_hd__o211ai_1
*I *8801:A I *D sky130_fd_sc_hd__nand3_1
*I *8580:B I *D sky130_fd_sc_hd__nand4_2
*I *8783:B I *D sky130_fd_sc_hd__nand4_2
*I *8785:B I *D sky130_fd_sc_hd__nand4_2
*I *8586:A I *D sky130_fd_sc_hd__nand3_2
*I *8575:X O *D sky130_fd_sc_hd__buf_2
*CAP
1 *8824:A 0.000114279
2 *8798:C1 0
3 *8801:A 0.000160959
4 *8580:B 0
5 *8783:B 0.000273376
6 *8785:B 2.08101e-05
7 *8586:A 2.5525e-05
8 *8575:X 0.000175611
9 *258:73 0.000199162
10 *258:42 0.000273376
11 *258:40 0.000701444
12 *258:36 0.000856457
13 *258:23 0.000440035
14 *258:6 0.000389271
15 *8586:A *8586:B 2.34602e-05
16 *8783:B *8580:A 0.000189079
17 *8783:B *8580:C 6.59668e-05
18 *8783:B *8783:A 0
19 *8783:B *259:16 6.20502e-05
20 *8785:B *8785:A 0
21 *8785:B *603:48 0
22 *8801:A *8778:A 0
23 *8801:A *261:97 0
24 *8801:A *419:10 0
25 *8801:A *419:14 8.65905e-05
26 *8801:A *441:12 0
27 *8824:A *8578:A 9.53428e-06
28 *8824:A *8798:B1 0.00023635
29 *8824:A *8828:A1_N 0
30 *8824:A *261:8 8.57321e-05
31 *8824:A *439:12 5.4155e-06
32 *8824:A *455:10 4.99619e-05
33 *258:23 *8586:C 0.000120655
34 *258:23 *8785:A 6.71882e-05
35 *258:23 *8785:C 4.75576e-05
36 *258:23 *8820:B1 9.30717e-05
37 *258:23 *603:48 5.13231e-05
38 *258:36 *8785:A 8.69182e-05
39 *258:36 *8799:A2 4.66108e-05
40 *258:36 *8799:B1 5.83121e-06
41 *258:40 *8580:D 0
42 *258:40 *8798:A1 1.22762e-05
43 *258:40 *8799:A2 1.22676e-05
44 *258:40 *261:83 0
45 *258:40 *261:97 0
46 *258:40 *419:10 0
47 *258:40 *441:12 0
48 *258:40 *591:22 7.23602e-05
49 *258:73 *8798:A1 8.65905e-05
50 *258:73 *8798:B1 4.99619e-05
51 *258:73 *8799:B1 3.51968e-05
52 *8565:C *258:40 7.63204e-05
53 *8565:D *258:40 4.2857e-05
54 *8757:C1 *258:36 0.00019637
55 *8777:B *258:40 3.86607e-05
56 *8797:A *258:40 0
57 *244:34 *258:40 0
58 *245:45 *258:40 2.4997e-05
59 *248:18 *8586:A 0
60 *248:18 *258:6 0.000108207
61 *248:18 *258:23 2.76356e-05
*RES
1 *8575:X *258:6 3.775 
2 *258:6 *8586:A 2.215 
3 *258:6 *258:23 7.75 
4 *258:23 *8785:B 1.96 
5 *258:23 *258:36 4.62 
6 *258:36 *258:40 10.52 
7 *258:40 *258:42 2 
8 *258:42 *8783:B 6.49 
9 *258:42 *8580:B 1.6 
10 *258:40 *8801:A 6.285 
11 *258:36 *258:73 1.83 
12 *258:73 *8798:C1 1.6 
13 *258:73 *8824:A 4.825 
*END

*D_NET *259 0.00183327
*CONN
*I *8783:C I *D sky130_fd_sc_hd__nand4_2
*I *8580:C I *D sky130_fd_sc_hd__nand4_2
*I *8576:X O *D sky130_fd_sc_hd__and3_1
*CAP
1 *8783:C 1.68577e-05
2 *8580:C 0.000196326
3 *8576:X 0.000336648
4 *259:16 0.000549832
5 *8580:C *8580:A 6.58423e-05
6 *8580:C *8778:A 5.4155e-06
7 *8580:C *261:97 8.40269e-05
8 *8783:C *8580:A 1.35397e-05
9 *259:16 *8580:A 2.05056e-05
10 *259:16 *8753:D 0
11 *259:16 *8782:A 3.1388e-05
12 *259:16 *8783:A 3.68769e-05
13 *259:16 *260:45 4.2558e-05
14 *259:16 *425:14 1.85674e-05
15 *259:16 *430:36 0
16 *259:16 *718:10 0.000172352
17 *8783:B *8580:C 6.59668e-05
18 *8783:B *259:16 6.20502e-05
19 *244:14 *259:16 1.83847e-05
20 *247:28 *259:16 9.61344e-05
*RES
1 *8576:X *259:16 12.845 
2 *259:16 *8580:C 5.17 
3 *259:16 *8783:C 1.96 
*END

*D_NET *260 0.0147328
*CONN
*I *8773:A I *D sky130_fd_sc_hd__or2b_1
*I *8578:A I *D sky130_fd_sc_hd__clkbuf_4
*I *8755:A I *D sky130_fd_sc_hd__nor3b_1
*I *8756:A I *D sky130_fd_sc_hd__nor3b_1
*I *8758:A I *D sky130_fd_sc_hd__nor3_1
*I *8582:A I *D sky130_fd_sc_hd__nor3b_1
*I *8762:A I *D sky130_fd_sc_hd__nor2_1
*I *8585:A I *D sky130_fd_sc_hd__nor3b_1
*I *8771:A I *D sky130_fd_sc_hd__nor3b_1
*I *8782:A I *D sky130_fd_sc_hd__nor2_1
*I *8577:X O *D sky130_fd_sc_hd__buf_2
*CAP
1 *8773:A 0
2 *8578:A 4.61082e-05
3 *8755:A 0
4 *8756:A 0
5 *8758:A 1.99752e-05
6 *8582:A 0.000450473
7 *8762:A 8.20685e-05
8 *8585:A 0.000244145
9 *8771:A 0.000152855
10 *8782:A 0.000124928
11 *8577:X 0.000502478
12 *260:115 0.000959488
13 *260:92 0.000817256
14 *260:88 0.000177339
15 *260:73 0.00113823
16 *260:63 0.00111382
17 *260:49 0.000262034
18 *260:45 0.000465902
19 *260:26 0.000647258
20 *260:18 0.000727403
21 *8578:A *8828:A1_N 0
22 *8578:A *430:46 5.83121e-06
23 *8578:A *439:12 9.72742e-06
24 *8578:A *455:10 1.19928e-05
25 *8582:A *8582:C_N 0
26 *8582:A *8583:D 0
27 *8582:A *8781:A2 0.000154557
28 *8582:A *266:12 0.000111405
29 *8585:A *8571:B 4.66108e-05
30 *8585:A *427:18 0.000122337
31 *8585:A *603:37 0.000300888
32 *8585:A *603:48 4.82919e-05
33 *8758:A *8758:C 4.77719e-05
34 *8758:A *400:12 1.19928e-05
35 *8762:A *8819:B1 0.000115028
36 *8771:A *8758:C 2.66771e-05
37 *8771:A *8771:C_N 5.9964e-06
38 *8771:A *597:42 2.64401e-05
39 *8782:A *8753:D 0.000100139
40 *8782:A *395:18 2.16833e-05
41 *8782:A *590:42 0.000122331
42 *260:18 *8564:B 2.05056e-05
43 *260:18 *8753:C 6.00081e-05
44 *260:18 *8753:D 7.00889e-06
45 *260:18 *8775:B 3.90609e-05
46 *260:18 *8776:A1 4.87465e-06
47 *260:18 *8776:A2 0.000480481
48 *260:18 *9080:CLK 0.000197269
49 *260:18 *416:6 4.01778e-05
50 *260:18 *417:8 4.35648e-05
51 *260:18 *430:36 0
52 *260:18 *592:19 0.000425829
53 *260:18 *592:47 9.40887e-05
54 *260:26 *8753:D 0.000247975
55 *260:26 *430:36 0.000158081
56 *260:45 *430:36 0
57 *260:45 *439:12 2.87867e-05
58 *260:45 *718:10 0
59 *260:49 *8755:B 2.92496e-05
60 *260:49 *430:36 0
61 *260:49 *430:46 0.000183043
62 *260:49 *718:10 0
63 *260:63 *8755:B 1.28505e-05
64 *260:63 *8755:C_N 0
65 *260:63 *8756:B 3.75328e-05
66 *260:63 *8756:C_N 0.000136464
67 *260:63 *588:36 2.85674e-05
68 *260:73 *8756:B 4.82863e-05
69 *260:73 *8757:A1 0.000201508
70 *260:73 *8785:D 4.99619e-05
71 *260:73 *8799:A2 3.09233e-05
72 *260:73 *261:18 0.000425301
73 *260:73 *261:36 9.98451e-05
74 *260:73 *397:8 8.5108e-05
75 *260:73 *602:40 0
76 *260:88 *8758:C 9.53428e-06
77 *260:92 *8567:D 7.20869e-05
78 *260:92 *8571:B 0.000108322
79 *260:92 *412:29 0.000122128
80 *260:92 *596:72 0.000219471
81 *260:115 *8571:B 2.92496e-05
82 *260:115 *8819:B1 8.15074e-05
83 *260:115 *412:29 1.1561e-05
84 *8574:B *260:115 4.82863e-05
85 *8574:D *260:115 6.97118e-05
86 *8575:A *260:115 4.82863e-05
87 *8583:A_N *8582:A 3.60024e-06
88 *8583:B *8582:A 2.09283e-05
89 *8751:A_N *260:115 9.54469e-05
90 *8760:A_N *260:115 0
91 *8770:C *8771:A 0
92 *8824:A *8578:A 9.53428e-06
93 *246:12 *260:26 2.05641e-05
94 *246:12 *260:45 9.77587e-05
95 *247:28 *260:45 0
96 *248:32 *260:92 3.09233e-05
97 *248:32 *260:115 0.000173984
98 *249:56 *260:115 0.000284216
99 *250:31 *260:115 0.000379663
100 *250:50 *8582:A 3.39014e-05
101 *250:69 *8582:A 7.01303e-05
102 *251:10 *8582:A 0.000156973
103 *251:74 *260:115 2.32597e-05
104 *259:16 *8782:A 3.1388e-05
105 *259:16 *260:45 4.2558e-05
*RES
1 *8577:X *260:18 17.405 
2 *260:18 *260:26 6.2075 
3 *260:26 *8782:A 6.2775 
4 *260:26 *260:45 5.8875 
5 *260:45 *260:49 4.4 
6 *260:49 *260:63 3.36 
7 *260:63 *260:73 20.68 
8 *260:73 *8771:A 4.165 
9 *260:73 *260:88 0.36 
10 *260:88 *260:92 5.93 
11 *260:92 *8585:A 9.225 
12 *260:92 *260:115 16.68 
13 *260:115 *8762:A 3.43 
14 *260:115 *8582:A 13.73 
15 *260:88 *8758:A 2.395 
16 *260:63 *8756:A 1.6 
17 *260:49 *8755:A 1.6 
18 *260:45 *8578:A 4.41 
19 *260:18 *8773:A 1.6 
*END

*D_NET *261 0.0205659
*CONN
*I *8827:A I *D sky130_fd_sc_hd__or4b_1
*I *8825:A I *D sky130_fd_sc_hd__or4b_1
*I *8579:A I *D sky130_fd_sc_hd__nor2_1
*I *8834:A2_N I *D sky130_fd_sc_hd__o2bb2ai_1
*I *8590:A1 I *D sky130_fd_sc_hd__o311a_1
*I *8752:A1 I *D sky130_fd_sc_hd__o311ai_4
*I *8805:A1 I *D sky130_fd_sc_hd__o311a_1
*I *8784:A I *D sky130_fd_sc_hd__nor2_1
*I *8750:A_N I *D sky130_fd_sc_hd__and4bb_1
*I *8769:A I *D sky130_fd_sc_hd__nor3b_1
*I *8578:X O *D sky130_fd_sc_hd__clkbuf_4
*CAP
1 *8827:A 0
2 *8825:A 7.84829e-05
3 *8579:A 0
4 *8834:A2_N 0.000282266
5 *8590:A1 9.34216e-05
6 *8752:A1 0.000149054
7 *8805:A1 6.5936e-05
8 *8784:A 0
9 *8750:A_N 0.0006071
10 *8769:A 0.00012108
11 *8578:X 0
12 *261:176 0.000342076
13 *261:122 0.000413408
14 *261:105 0.00141302
15 *261:97 0.00204601
16 *261:83 0.000939687
17 *261:36 0.001725
18 *261:18 0.0015774
19 *261:8 0.0011548
20 *261:4 0.000485728
21 *8590:A1 *8993:B1 2.16786e-05
22 *8750:A_N *8759:A_N 5.57361e-05
23 *8750:A_N *8770:D 6.24082e-05
24 *8750:A_N *8812:B1 0.000155928
25 *8750:A_N *8814:B1 3.81318e-05
26 *8750:A_N *8815:B1 0.000124007
27 *8750:A_N *412:29 1.36454e-05
28 *8752:A1 *8590:C1 5.86171e-05
29 *8752:A1 *448:18 0.000378513
30 *8769:A *8769:B 5.18317e-06
31 *8769:A *8770:D 4.1652e-06
32 *8769:A *8814:A2_N 6.80075e-05
33 *8769:A *8814:B1 0.000171728
34 *8805:A1 *8805:C1 8.49535e-06
35 *8805:A1 *8806:A 1.34594e-05
36 *8825:A *8825:B 6.02123e-05
37 *8825:A *9035:CLK 0.00011379
38 *8825:A *589:23 3.26889e-05
39 *8834:A2_N *9040:CLK 9.51192e-05
40 *8834:A2_N *9189:A 0
41 *8834:A2_N *718:49 3.67779e-05
42 *261:8 *455:10 0.00015806
43 *261:18 *8798:A1 0
44 *261:18 *430:56 4.82919e-05
45 *261:18 *718:10 0.000264257
46 *261:36 *452:40 0.000726123
47 *261:36 *452:42 0.000310768
48 *261:36 *761:16 7.06865e-05
49 *261:83 *8798:A1 0
50 *261:83 *395:18 0.000140384
51 *261:83 *419:10 3.17967e-05
52 *261:83 *590:42 0
53 *261:83 *591:22 1.94548e-05
54 *261:83 *591:31 3.92196e-05
55 *261:83 *718:10 0.000529428
56 *261:97 *8832:C_N 0.000126751
57 *261:97 *419:10 0.000297789
58 *261:97 *718:10 0.000381066
59 *261:97 *718:49 1.1561e-05
60 *261:105 *8588:B1 5.39718e-05
61 *261:105 *8794:B 0.000110007
62 *261:105 *9189:A 0.000239813
63 *261:105 *393:48 3.68682e-05
64 *261:122 *8588:B1 1.48978e-05
65 *261:122 *393:48 4.18603e-06
66 *261:122 *393:61 6.83376e-06
67 *261:176 *8755:C_N 0.000208594
68 *261:176 *8827:B 0
69 *261:176 *8828:B1 3.64998e-06
70 *261:176 *397:8 0
71 *261:176 *430:46 7.23533e-05
72 *261:176 *452:24 0
73 *261:176 *589:53 0.00015449
74 *8580:C *261:97 8.40269e-05
75 *8590:A3 *8590:A1 0.000200406
76 *8590:A3 *261:122 9.50342e-06
77 *8752:A2 *8752:A1 0.00016063
78 *8770:A_N *8750:A_N 8.25609e-05
79 *8770:B *8750:A_N 8.49205e-05
80 *8770:C *8750:A_N 7.49443e-05
81 *8790:A1 *261:105 2.16833e-05
82 *8797:A *261:83 0.000162318
83 *8801:A *261:97 0
84 *8805:B1 *8590:A1 0.000203755
85 *8805:B1 *261:122 0.000348791
86 *8824:A *261:8 8.57321e-05
87 *243:12 *261:105 0.000928529
88 *249:135 *8805:A1 2.16833e-05
89 *252:61 *8805:A1 1.08758e-05
90 *252:65 *261:122 0.000325718
91 *253:12 *8750:A_N 0.00016063
92 *258:40 *261:83 0
93 *258:40 *261:97 0
94 *260:73 *261:18 0.000425301
95 *260:73 *261:36 9.98451e-05
*RES
1 *8578:X *261:4 1.6 
2 *261:4 *261:8 4.865 
3 *261:8 *261:18 12.98 
4 *261:18 *261:36 19.89 
5 *261:36 *8769:A 6.33 
6 *261:36 *8750:A_N 17.71 
7 *261:18 *8784:A 1.6 
8 *261:8 *261:83 10.325 
9 *261:83 *261:97 18.42 
10 *261:97 *261:105 20.065 
11 *261:105 *8805:A1 4.755 
12 *261:105 *261:122 4.995 
13 *261:122 *8752:A1 7.875 
14 *261:122 *8590:A1 6.45 
15 *261:97 *8834:A2_N 7.335 
16 *261:83 *8579:A 1.6 
17 *261:4 *261:176 9.505 
18 *261:176 *8825:A 7.595 
19 *261:176 *8827:A 1.6 
*END

*D_NET *262 0.000711804
*CONN
*I *8580:D I *D sky130_fd_sc_hd__nand4_2
*I *8579:Y O *D sky130_fd_sc_hd__nor2_1
*CAP
1 *8580:D 0.000271526
2 *8579:Y 0.000271526
3 *8580:D *441:12 0.000140912
4 *8580:D *591:22 1.61831e-05
5 *8580:D *591:31 1.16578e-05
6 *258:40 *8580:D 0
*RES
1 *8579:Y *8580:D 11.01 
*END

*D_NET *263 0.00268671
*CONN
*I *8790:B1 I *D sky130_fd_sc_hd__o31ai_1
*I *8581:B1 I *D sky130_fd_sc_hd__o31a_1
*I *8987:A I *D sky130_fd_sc_hd__nand4_1
*I *8580:Y O *D sky130_fd_sc_hd__nand4_2
*CAP
1 *8790:B1 9.38334e-05
2 *8581:B1 0
3 *8987:A 0
4 *8580:Y 0.000480619
5 *263:25 0.000182275
6 *263:14 0.00056906
7 *8790:B1 *761:16 2.60957e-05
8 *8790:B1 *761:28 7.35632e-05
9 *263:14 *8778:A 3.03684e-05
10 *263:14 *8778:B 7.57683e-05
11 *263:14 *8992:C1 1.14169e-05
12 *263:14 *441:12 0.00018056
13 *263:14 *547:10 8.32613e-05
14 *263:14 *759:12 0.00014796
15 *263:25 *8588:A3 0.00015896
16 *263:25 *8987:D 0.000119756
17 *263:25 *8992:C1 6.03837e-05
18 *263:25 *547:10 2.93678e-05
19 *8778:C *263:14 0.000117825
20 *251:110 *263:14 2.78732e-05
21 *252:22 *8790:B1 3.09164e-05
22 *252:46 *8790:B1 0.000114492
23 *252:61 *8790:B1 7.23602e-05
*RES
1 *8580:Y *263:14 16.085 
2 *263:14 *8987:A 1.6 
3 *263:14 *263:25 2.895 
4 *263:25 *8581:B1 1.6 
5 *263:25 *8790:B1 8 
*END

*D_NET *264 0.00147727
*CONN
*I *8787:A I *D sky130_fd_sc_hd__nand4_2
*I *8588:A1 I *D sky130_fd_sc_hd__a31oi_1
*I *8581:X O *D sky130_fd_sc_hd__o31a_1
*CAP
1 *8787:A 0.000106757
2 *8588:A1 0.000186199
3 *8581:X 0
4 *264:4 0.000292956
5 *8588:A1 *8588:A3 0.000167391
6 *8588:A1 *8588:B1 8.69583e-05
7 *8588:A1 *8992:B1 4.66108e-05
8 *8588:A1 *8992:C1 5.78206e-05
9 *8787:A *8787:B 0.000125264
10 *8787:A *8802:B 2.94826e-05
11 *8787:A *8987:C 7.23533e-05
12 *8787:A *8992:B1 3.86529e-05
13 *8992:A1 *8588:A1 0.000165337
14 *8992:A3 *8588:A1 0.00010149
*RES
1 *8581:X *264:4 1.6 
2 *264:4 *8588:A1 6.34 
3 *264:4 *8787:A 8.225 
*END

*D_NET *265 0.00149137
*CONN
*I *8781:B1 I *D sky130_fd_sc_hd__a21oi_1
*I *8583:D I *D sky130_fd_sc_hd__nand4b_1
*I *8582:Y O *D sky130_fd_sc_hd__nor3b_1
*CAP
1 *8781:B1 0.000103821
2 *8583:D 0.000298463
3 *8582:Y 0
4 *265:6 0.000402285
5 *8583:D *8568:D 0
6 *8583:D *8582:C_N 0.000285941
7 *8583:D *8781:A1 4.43871e-06
8 *8583:D *8781:A2 0
9 *8781:B1 *8781:A1 0.00019183
10 *8781:B1 *8781:A2 0
11 *8781:B1 *8786:A3 4.6368e-06
12 *8582:A *8583:D 0
13 *8583:A_N *8583:D 6.24477e-05
14 *8583:C *8583:D 9.13949e-06
15 *8792:B *8583:D 1.01661e-05
16 *9122:D *8781:B1 4.48266e-05
17 *250:50 *8583:D 0
18 *250:69 *8583:D 0
19 *255:14 *8583:D 7.33706e-05
*RES
1 *8582:Y *265:6 3.6 
2 *265:6 *8583:D 9.645 
3 *265:6 *8781:B1 6.21 
*END

*D_NET *266 0.0015158
*CONN
*I *8793:A I *D sky130_fd_sc_hd__nand4_1
*I *8588:A2 I *D sky130_fd_sc_hd__a31oi_1
*I *8583:Y O *D sky130_fd_sc_hd__nand4b_1
*CAP
1 *8793:A 0
2 *8588:A2 0.000135942
3 *8583:Y 0.000253021
4 *266:12 0.000388963
5 *8588:A2 *8588:A3 1.33293e-05
6 *8588:A2 *8588:B1 7.00889e-06
7 *8588:A2 *8786:B1 0
8 *8588:A2 *8787:D 3.09233e-05
9 *8588:A2 *8793:B 3.57924e-05
10 *8588:A2 *8793:C 0
11 *8588:A2 *8794:B 7.4027e-05
12 *8588:A2 *393:48 0
13 *266:12 *8781:A2 0.000156474
14 *266:12 *8786:A3 6.23375e-05
15 *266:12 *8793:C 6.71882e-05
16 *266:12 *8793:D 8.65961e-05
17 *266:12 *406:12 1.07797e-05
18 *8582:A *266:12 0.000111405
19 *8583:B *266:12 7.23533e-05
20 *9122:D *8588:A2 3.82323e-06
21 *249:79 *266:12 0
22 *249:96 *266:12 5.83121e-06
*RES
1 *8583:Y *266:12 11.195 
2 *266:12 *8588:A2 8.03 
3 *266:12 *8793:A 1.6 
*END

*D_NET *267 0.00155772
*CONN
*I *8785:C I *D sky130_fd_sc_hd__nand4_2
*I *8586:B I *D sky130_fd_sc_hd__nand3_2
*I *8584:X O *D sky130_fd_sc_hd__and3_1
*CAP
1 *8785:C 8.30809e-05
2 *8586:B 5.61447e-05
3 *8584:X 0.000320738
4 *267:16 0.000459964
5 *8785:C *8586:C 7.06865e-05
6 *8785:C *8761:A1 3.2288e-05
7 *8785:C *8785:D 5.53249e-06
8 *8785:C *8820:B1 4.48373e-06
9 *8785:C *8823:B1 0
10 *8586:A *8586:B 2.34602e-05
11 *8795:A *267:16 4.60819e-05
12 *8795:B *267:16 8.65961e-05
13 *8795:D *267:16 4.66108e-05
14 *244:34 *267:16 5.4155e-06
15 *244:36 *267:16 9.02174e-05
16 *246:33 *267:16 6.0078e-05
17 *248:18 *8586:B 1.83756e-05
18 *248:18 *267:16 0.000100408
19 *258:23 *8785:C 4.75576e-05
*RES
1 *8584:X *267:16 8.08 
2 *267:16 *8586:B 2.665 
3 *267:16 *8785:C 7.535 
*END

*D_NET *268 0.00109955
*CONN
*I *8586:C I *D sky130_fd_sc_hd__nand3_2
*I *8585:Y O *D sky130_fd_sc_hd__nor3b_1
*CAP
1 *8586:C 0.000316727
2 *8585:Y 0.000316727
3 *8586:C *8761:A1 0.000113797
4 *8586:C *8820:B1 0
5 *8586:C *603:37 8.49205e-05
6 *8586:C *603:48 7.60398e-05
7 *8785:C *8586:C 7.06865e-05
8 *258:23 *8586:C 0.000120655
*RES
1 *8585:Y *8586:C 11.79 
*END

*D_NET *269 0.00522635
*CONN
*I *8588:A3 I *D sky130_fd_sc_hd__a31oi_1
*I *8987:B I *D sky130_fd_sc_hd__nand4_1
*I *8802:A I *D sky130_fd_sc_hd__nand4_1
*I *8767:A I *D sky130_fd_sc_hd__nand3_1
*I *8586:Y O *D sky130_fd_sc_hd__nand3_2
*CAP
1 *8588:A3 0.000439081
2 *8987:B 0
3 *8802:A 0
4 *8767:A 0
5 *8586:Y 0.000409921
6 *269:42 0.000528619
7 *269:31 0.000315336
8 *269:10 0.00063572
9 *8588:A3 *8588:B1 2.0514e-05
10 *8588:A3 *8987:D 5.16348e-05
11 *8588:A3 *8992:C1 9.80943e-06
12 *8588:A3 *8993:A1 4.82863e-05
13 *8588:A3 *761:16 8.28738e-05
14 *269:10 *393:29 0
15 *269:10 *427:18 0.000494367
16 *269:10 *442:24 7.1932e-06
17 *269:31 *8767:C 9.29751e-06
18 *269:31 *8787:B 0.000179199
19 *269:31 *8802:B 0.000162344
20 *269:31 *8802:C 5.28549e-05
21 *269:31 *8802:D 7.23602e-05
22 *269:31 *427:18 0.000136877
23 *269:42 *8802:C 9.56791e-05
24 *269:42 *8987:D 0.00013178
25 *269:42 *761:16 0.000130106
26 *8588:A1 *8588:A3 0.000167391
27 *8588:A2 *8588:A3 1.33293e-05
28 *8992:A1 *8588:A3 0
29 *8992:A3 *8588:A3 0.000347304
30 *9122:D *8588:A3 0.000161003
31 *9178:A *269:10 0.000132401
32 *251:74 *269:10 0.000232111
33 *252:22 *269:31 0
34 *263:25 *8588:A3 0.00015896
*RES
1 *8586:Y *269:10 11.49 
2 *269:10 *8767:A 3.6 
3 *269:10 *269:31 7.835 
4 *269:31 *8802:A 1.6 
5 *269:31 *269:42 4.43 
6 *269:42 *8987:B 3.6 
7 *269:42 *8588:A3 12.69 
*END

*D_NET *270 0.00370238
*CONN
*I *8993:B1 I *D sky130_fd_sc_hd__a21oi_1
*I *8588:B1 I *D sky130_fd_sc_hd__a31oi_1
*I *8587:X O *D sky130_fd_sc_hd__or3b_1
*CAP
1 *8993:B1 0.000390814
2 *8588:B1 0.000440658
3 *8587:X 0.00014076
4 *270:10 0.000972232
5 *8588:B1 *8794:B 7.93269e-05
6 *8588:B1 *393:48 0
7 *8993:B1 *8592:A1 9.47454e-05
8 *8993:B1 *8993:A1 0.000122435
9 *8993:B1 *8993:A2 0.000423931
10 *270:10 *8993:A2 9.44548e-05
11 *270:10 *620:80 8.95933e-05
12 *8588:A1 *8588:B1 8.69583e-05
13 *8588:A2 *8588:B1 7.00889e-06
14 *8588:A3 *8588:B1 2.0514e-05
15 *8590:A1 *8993:B1 2.16786e-05
16 *8590:A2 *8993:B1 0.000153794
17 *8788:A2 *270:10 0
18 *8805:B1 *8993:B1 1.01661e-05
19 *188:10 *8993:B1 0.000155108
20 *249:139 *8588:B1 0.000180682
21 *249:139 *8993:B1 0.00013521
22 *252:65 *8588:B1 1.34361e-05
23 *261:105 *8588:B1 5.39718e-05
24 *261:122 *8588:B1 1.48978e-05
*RES
1 *8587:X *270:10 6.135 
2 *270:10 *8588:B1 12.03 
3 *270:10 *8993:B1 13.515 
*END

*D_NET *271 0.00236525
*CONN
*I *8590:C1 I *D sky130_fd_sc_hd__o311a_1
*I *8589:Y O *D sky130_fd_sc_hd__inv_2
*CAP
1 *8590:C1 0.000767881
2 *8589:Y 0.000767881
3 *8590:C1 *8587:B 0.000177275
4 *8590:C1 *8993:A2 0.000235339
5 *8590:C1 *448:18 1.7028e-05
6 *8590:C1 *620:96 0
7 *8752:A1 *8590:C1 5.86171e-05
8 *8752:A2 *8590:C1 6.27347e-05
9 *8752:C1 *8590:C1 0.000139245
10 *8788:A2 *8590:C1 0.000139245
*RES
1 *8589:Y *8590:C1 22.435 
*END

*D_NET *272 0.00103287
*CONN
*I *8592:A1 I *D sky130_fd_sc_hd__o21a_1
*I *8590:X O *D sky130_fd_sc_hd__o311a_1
*CAP
1 *8592:A1 0.000167769
2 *8590:X 0.000167769
3 *8592:A1 *8489:B 4.66108e-05
4 *8592:A1 *8993:A2 0.000161529
5 *8592:A1 *742:79 0
6 *8788:A2 *8592:A1 0
7 *8993:B1 *8592:A1 9.47454e-05
8 *188:10 *8592:A1 3.65279e-05
9 *195:39 *8592:A1 0.000346503
10 *239:50 *8592:A1 1.14169e-05
*RES
1 *8590:X *8592:A1 12.045 
*END

*D_NET *273 0.00551032
*CONN
*I *8592:A2 I *D sky130_fd_sc_hd__o21a_1
*I *8591:X O *D sky130_fd_sc_hd__and3b_1
*CAP
1 *8592:A2 0.00190359
2 *8591:X 0.00190359
3 *8592:A2 *8590:B1 0.000212919
4 *8592:A2 *8591:A_N 7.35813e-05
5 *8592:A2 *8591:C 4.99619e-05
6 *8592:A2 *8990:A 2.04748e-05
7 *8592:A2 *8990:B 5.57448e-05
8 *8592:A2 *8991:A 2.75229e-05
9 *8592:A2 *8993:A2 0.000133498
10 *8592:A2 *8994:C 6.05917e-05
11 *8592:A2 *9132:CLK 0.000277482
12 *8592:A2 *445:44 6.46602e-05
13 *8592:A2 *620:72 2.8185e-05
14 *8592:A2 *747:23 1.29825e-05
15 *8592:A2 *747:34 2.66586e-05
16 *189:8 *8592:A2 4.66108e-05
17 *195:39 *8592:A2 0.000612259
*RES
1 *8591:X *8592:A2 33.84 
*END

*D_NET *274 0.00197038
*CONN
*I *8594:B1 I *D sky130_fd_sc_hd__o21a_1
*I *8593:Y O *D sky130_fd_sc_hd__nor2_1
*CAP
1 *8594:B1 0.000678281
2 *8593:Y 0.000678281
3 *8594:B1 *8594:A1 7.78019e-05
4 *8594:B1 *720:36 1.56428e-05
5 *8594:B1 *720:46 9.37731e-05
6 *8594:B1 *759:18 0
7 *8594:B1 *761:28 6.88116e-05
8 *9136:D *8594:B1 0.000337323
9 *237:46 *8594:B1 1.4389e-05
10 *237:71 *8594:B1 6.07575e-06
*RES
1 *8593:Y *8594:B1 17.43 
*END

*D_NET *275 0.0188739
*CONN
*I *8744:A I *D sky130_fd_sc_hd__or2_1
*I *8596:A_N I *D sky130_fd_sc_hd__and4bb_1
*I *8598:A_N I *D sky130_fd_sc_hd__and4bb_1
*I *8742:A I *D sky130_fd_sc_hd__or2_1
*I *9012:B1 I *D sky130_fd_sc_hd__a21o_1
*I *8906:A I *D sky130_fd_sc_hd__or2_1
*I *8903:A I *D sky130_fd_sc_hd__or2_1
*I *8904:B1 I *D sky130_fd_sc_hd__a31o_2
*I *8954:B1 I *D sky130_fd_sc_hd__a31o_2
*I *8932:A_N I *D sky130_fd_sc_hd__and4bb_1
*I *8595:X O *D sky130_fd_sc_hd__buf_2
*CAP
1 *8744:A 0.000145594
2 *8596:A_N 0
3 *8598:A_N 0.00022644
4 *8742:A 2.51547e-05
5 *9012:B1 0
6 *8906:A 0
7 *8903:A 0.000142204
8 *8904:B1 0
9 *8954:B1 0.000301072
10 *8932:A_N 0.000288819
11 *8595:X 0.000661142
12 *275:121 0.00029204
13 *275:108 0.000223265
14 *275:106 0.00121981
15 *275:95 0.00207188
16 *275:73 0.000366754
17 *275:63 0.00173079
18 *275:50 0.000461555
19 *275:31 0.000996816
20 *275:16 0.00156022
21 *8598:A_N *8596:B_N 0
22 *8598:A_N *8598:B_N 4.9253e-06
23 *8598:A_N *8598:C 0
24 *8598:A_N *9046:CLK 0.000185344
25 *8598:A_N *707:132 1.01661e-05
26 *8598:A_N *720:71 8.70923e-05
27 *8742:A *665:30 1.94805e-05
28 *8742:A *735:1306 2.59981e-05
29 *8744:A *8744:B 4.82863e-05
30 *8744:A *8745:A 6.52349e-05
31 *8903:A *511:8 0.000120655
32 *8932:A_N *8702:B2 0.000277939
33 *8954:B1 *8705:B2 8.7152e-06
34 *8954:B1 *8708:B2 7.78761e-05
35 *8954:B1 *8904:A1 1.46943e-05
36 *8954:B1 *335:55 0
37 *8954:B1 *337:49 6.46014e-05
38 *8954:B1 *531:18 7.96104e-06
39 *275:16 *8680:A 0
40 *275:16 *8684:A 1.64078e-05
41 *275:16 *8701:A1 0
42 *275:16 *8702:C1 9.14049e-05
43 *275:16 *8722:A3 0
44 *275:16 *8725:B 5.2089e-05
45 *275:16 *337:25 0
46 *275:16 *337:38 0
47 *275:16 *338:14 0
48 *275:16 *338:18 0
49 *275:16 *339:23 0.000101317
50 *275:16 *339:36 3.50033e-05
51 *275:16 *503:16 0.000110486
52 *275:16 *524:12 0.000143659
53 *275:16 *742:58 0.000585027
54 *275:16 *742:73 3.57254e-05
55 *275:31 *8699:B2 1.79483e-05
56 *275:31 *8699:C1 1.73524e-05
57 *275:31 *8702:A1 4.39123e-06
58 *275:31 *8702:B1 0.000143348
59 *275:31 *8702:B2 2.09775e-05
60 *275:31 *8703:B2 0.00015639
61 *275:31 *8705:C1 0.000101317
62 *275:31 *8722:A3 0.000300928
63 *275:31 *344:31 0
64 *275:31 *345:23 0
65 *275:50 *8705:C1 2.96963e-05
66 *275:50 *8722:A3 2.52323e-05
67 *275:50 *8904:A1 1.94811e-05
68 *275:50 *512:12 7.11219e-05
69 *275:63 *8705:A1 7.17624e-05
70 *275:63 *8705:A2 6.7053e-05
71 *275:63 *8705:B1 4.77757e-05
72 *275:63 *8705:B2 1.20741e-05
73 *275:63 *8708:B1 0.000102949
74 *275:63 *8904:A3 0.000339067
75 *275:63 *711:101 1.14169e-05
76 *275:73 *8905:A3 0.000179878
77 *275:73 *8907:A2 2.06083e-05
78 *275:73 *8907:A3 0.000116165
79 *275:73 *8955:A3 1.52835e-05
80 *275:73 *8956:A3 3.21081e-06
81 *275:73 *352:60 1.08784e-05
82 *275:73 *352:62 2.0851e-06
83 *275:73 *510:110 1.43749e-05
84 *275:73 *510:129 3.60648e-06
85 *275:73 *513:6 5.83121e-06
86 *275:95 *8708:A1 0.000133492
87 *275:95 *9117:SET_B 0.000222054
88 *275:95 *613:16 3.85884e-05
89 *275:95 *618:14 0.000116853
90 *275:95 *711:101 0.000147174
91 *275:95 *735:653 0.000120186
92 *275:106 *9013:A1 7.21296e-06
93 *275:106 *9013:A2 8.15676e-05
94 *275:106 *9013:B1 0.000123773
95 *275:106 *9140:SET_B 0.000196634
96 *275:106 *9168:CLK 0.000180682
97 *275:106 *292:80 0.0001052
98 *275:106 *642:12 0.00024756
99 *275:106 *665:10 0
100 *275:106 *665:12 0
101 *275:106 *665:18 5.66047e-05
102 *275:106 *665:30 2.99518e-06
103 *275:106 *711:10 0.000283171
104 *275:106 *711:62 4.71081e-05
105 *275:106 *711:78 0.000116158
106 *275:106 *735:1306 0.000134424
107 *275:108 *665:30 0.000110243
108 *275:108 *735:1306 0.000154877
109 *275:121 *9046:CLK 0.000414543
110 *9137:D *8598:A_N 3.64998e-06
111 *9142:D *8598:A_N 0.000254408
112 *9142:D *275:121 0.0004262
113 *9167:D *275:106 0.000187759
114 *234:22 *275:106 0
115 *237:71 *8598:A_N 0.0001249
*RES
1 *8595:X *275:16 20.06 
2 *275:16 *8932:A_N 5.515 
3 *275:16 *275:31 13.055 
4 *275:31 *8954:B1 11.755 
5 *275:31 *275:50 3.635 
6 *275:50 *8904:B1 1.6 
7 *275:50 *275:63 7.74 
8 *275:63 *275:73 8.575 
9 *275:73 *8903:A 3.775 
10 *275:73 *8906:A 1.6 
11 *275:63 *275:95 21.925 
12 *275:95 *9012:B1 1.6 
13 *275:95 *275:106 25.505 
14 *275:106 *275:108 3.42 
15 *275:108 *8742:A 4.215 
16 *275:108 *275:121 5.9 
17 *275:121 *8598:A_N 11.72 
18 *275:121 *8596:A_N 1.6 
19 *275:106 *8744:A 5.805 
*END

*D_NET *276 0.0016885
*CONN
*I *8597:A I *D sky130_fd_sc_hd__clkbuf_1
*I *8596:X O *D sky130_fd_sc_hd__and4bb_1
*CAP
1 *8597:A 0.00063525
2 *8596:X 0.00063525
3 *8597:A *8723:A 6.02762e-05
4 *8597:A *9137:RESET_B 0.000188008
5 *8597:A *9142:CLK 2.49909e-05
6 *8597:A *665:45 7.23602e-05
7 *8597:A *735:1258 8.53113e-06
8 *8597:A *735:1306 6.38291e-05
*RES
1 *8596:X *8597:A 15.69 
*END

*D_NET *277 0.00063571
*CONN
*I *8599:A I *D sky130_fd_sc_hd__clkbuf_1
*I *8598:X O *D sky130_fd_sc_hd__and4bb_1
*CAP
1 *8599:A 0.000303462
2 *8598:X 0.000303462
3 *8599:A *8591:A_N 2.87867e-05
4 *8599:A *735:1165 0
*RES
1 *8598:X *8599:A 11.895 
*END

*D_NET *278 0.00124437
*CONN
*I *8604:A I *D sky130_fd_sc_hd__nand4_4
*I *8619:A1 I *D sky130_fd_sc_hd__o221a_1
*I *8600:Y O *D sky130_fd_sc_hd__nor3_2
*CAP
1 *8604:A 3.76725e-05
2 *8619:A1 0.000223873
3 *8600:Y 3.69588e-05
4 *278:8 0.000298504
5 *8604:A *8633:B1 0.000105266
6 *8604:A *8875:A1 0.000113797
7 *8619:A1 *8619:A2 0
8 *8619:A1 *8619:B2 5.4155e-06
9 *8619:A1 *8633:B1 0.000178314
10 *8619:A1 *8875:A1 0.000178314
11 *8619:A1 *9150:CLK 4.00541e-06
12 *8619:A1 *714:62 1.56428e-05
13 *278:8 *656:81 4.66108e-05
*RES
1 *8600:Y *278:8 4.05 
2 *278:8 *8619:A1 8.205 
3 *278:8 *8604:A 4.98 
*END

*D_NET *279 0.00339343
*CONN
*I *8631:B I *D sky130_fd_sc_hd__and3_1
*I *8634:C I *D sky130_fd_sc_hd__and4b_1
*I *8604:B I *D sky130_fd_sc_hd__nand4_4
*I *8601:Y O *D sky130_fd_sc_hd__nor2_1
*CAP
1 *8631:B 0
2 *8634:C 0.000137118
3 *8604:B 7.08364e-05
4 *8601:Y 0.000500725
5 *279:22 0.000470762
6 *279:18 0.000763532
7 *8604:B *8604:D 3.24131e-05
8 *8604:B *8636:B1 0.000133528
9 *8604:B *295:23 0
10 *8634:C *8604:D 2.84137e-05
11 *8634:C *8633:C1 3.26889e-05
12 *8634:C *8634:D 9.41188e-05
13 *8634:C *8636:B1 0.00018305
14 *8634:C *8652:C 0.00012657
15 *279:18 *8601:A 0.000231594
16 *279:18 *8629:A 0.000134236
17 *279:18 *9153:CLK 9.4087e-05
18 *279:18 *9153:RESET_B 5.05437e-05
19 *279:18 *660:27 1.31732e-05
20 *279:18 *660:42 0.000101276
21 *279:18 *735:1514 6.00232e-05
22 *279:22 *9153:CLK 5.83121e-06
23 *279:22 *281:30 0.000128914
*RES
1 *8601:Y *279:18 14.03 
2 *279:18 *279:22 5.21 
3 *279:22 *8604:B 5.235 
4 *279:22 *8634:C 8.115 
5 *279:18 *8631:B 1.6 
*END

*D_NET *280 0.00160001
*CONN
*I *8604:C I *D sky130_fd_sc_hd__nand4_4
*I *8602:Y O *D sky130_fd_sc_hd__inv_2
*CAP
1 *8604:C 0.000232187
2 *8602:Y 0.000232187
3 *8604:C *8604:D 2.40284e-05
4 *8604:C *8618:B1 0.000140018
5 *8604:C *8620:B 1.91597e-05
6 *8604:C *8620:C 8.40269e-05
7 *8604:C *8620:D 1.83847e-05
8 *8604:C *8628:A1 2.93674e-05
9 *8604:C *8628:A2 4.66108e-05
10 *8604:C *8629:B 3.31103e-05
11 *8604:C *8630:C1 0.000733255
12 *8604:C *295:8 7.67415e-06
*RES
1 *8602:Y *8604:C 11.03 
*END

*D_NET *281 0.00370057
*CONN
*I *8631:C I *D sky130_fd_sc_hd__and3_1
*I *8634:D I *D sky130_fd_sc_hd__and4b_1
*I *8604:D I *D sky130_fd_sc_hd__nand4_4
*I *8603:Y O *D sky130_fd_sc_hd__inv_2
*CAP
1 *8631:C 2.80899e-06
2 *8634:D 0.000101002
3 *8604:D 0.000129473
4 *8603:Y 0.000846122
5 *281:30 0.00039647
6 *281:24 0.00101493
7 *8604:D *8618:B1 8.94048e-05
8 *8604:D *8630:C1 0.000160629
9 *8604:D *295:23 8.83166e-05
10 *8631:C *9153:CLK 8.80195e-06
11 *8634:D *8634:B 5.02217e-05
12 *8634:D *295:23 1.1561e-05
13 *281:24 *8633:A1 1.88602e-05
14 *281:24 *8875:A1 0
15 *281:24 *9083:D 0
16 *281:24 *9153:CLK 1.15146e-05
17 *281:24 *660:14 4.37631e-05
18 *281:24 *661:8 1.89439e-05
19 *281:30 *8631:A 0.000382769
20 *281:30 *9153:CLK 1.70906e-05
21 *8604:B *8604:D 3.24131e-05
22 *8604:C *8604:D 2.40284e-05
23 *8634:C *8604:D 2.84137e-05
24 *8634:C *8634:D 9.41188e-05
25 *279:22 *281:30 0.000128914
*RES
1 *8603:Y *281:24 9.70257 
2 *281:24 *281:30 6.5375 
3 *281:30 *8604:D 7.695 
4 *281:30 *8634:D 5.88375 
5 *281:24 *8631:C 1.8175 
*END

*D_NET *282 0.00305914
*CONN
*I *8605:D I *D sky130_fd_sc_hd__nor4_2
*I *8637:B I *D sky130_fd_sc_hd__or2_1
*I *8641:A3 I *D sky130_fd_sc_hd__o31a_1
*I *8643:D I *D sky130_fd_sc_hd__or4_1
*I *8646:A3 I *D sky130_fd_sc_hd__o31a_1
*I *8604:Y O *D sky130_fd_sc_hd__nand4_4
*CAP
1 *8605:D 0
2 *8637:B 0.000131471
3 *8641:A3 2.6306e-05
4 *8643:D 0
5 *8646:A3 4.58193e-05
6 *8604:Y 0.000371839
7 *282:42 0.000215435
8 *282:26 6.74107e-05
9 *282:22 0.000129414
10 *282:18 0.000422004
11 *8637:B *8637:A 4.75031e-05
12 *8637:B *8652:C 6.39365e-05
13 *8637:B *652:8 4.82919e-05
14 *8637:B *652:10 0
15 *8637:B *652:52 0
16 *8637:B *662:103 1.01152e-05
17 *8637:B *663:26 3.09233e-05
18 *8637:B *714:158 5.05521e-05
19 *8641:A3 *8641:A1 1.91597e-05
20 *8641:A3 *291:50 8.23457e-05
21 *8641:A3 *663:22 4.66108e-05
22 *8646:A3 *8642:A1 0
23 *8646:A3 *8642:A2 7.22354e-05
24 *8646:A3 *311:10 0.000124007
25 *8646:A3 *662:76 0
26 *282:18 *8605:C 3.70488e-05
27 *282:18 *8634:A_N 0.000155227
28 *282:18 *8634:B 0
29 *282:18 *8636:B1 0
30 *282:18 *8648:A2 0
31 *282:18 *8648:A3 4.82863e-05
32 *282:18 *8652:C 7.09999e-05
33 *282:18 *293:101 0
34 *282:18 *295:23 0
35 *282:22 *8652:C 0.000134509
36 *282:22 *662:66 1.26548e-05
37 *282:22 *663:30 0.000112123
38 *282:26 *8642:A2 7.00889e-06
39 *282:26 *311:10 7.23635e-05
40 *282:26 *662:76 5.64111e-05
41 *282:42 *8652:C 0.000170484
42 *282:42 *663:26 0.000104287
43 *282:42 *663:30 7.23602e-05
*RES
1 *8604:Y *282:18 12.77 
2 *282:18 *282:22 3.635 
3 *282:22 *282:26 2.795 
4 *282:26 *8646:A3 3.1 
5 *282:26 *8643:D 1.6 
6 *282:22 *282:42 2.145 
7 *282:42 *8641:A3 4.395 
8 *282:42 *8637:B 6.54 
9 *282:18 *8605:D 1.6 
*END

*D_NET *283 0.00270387
*CONN
*I *8642:A1 I *D sky130_fd_sc_hd__o221a_1
*I *8607:B I *D sky130_fd_sc_hd__nand3b_4
*I *8649:A1 I *D sky130_fd_sc_hd__a21o_1
*I *8605:Y O *D sky130_fd_sc_hd__nor4_2
*CAP
1 *8642:A1 9.82795e-05
2 *8607:B 0
3 *8649:A1 0.000138419
4 *8605:Y 8.49224e-05
5 *283:14 0.000504214
6 *283:6 0.000548997
7 *8642:A1 *8605:A 4.75576e-05
8 *8642:A1 *8642:A2 1.91597e-05
9 *8642:A1 *8642:B1 0
10 *8642:A1 *8646:A1 8.23457e-05
11 *8642:A1 *8883:B2 9.14049e-05
12 *8642:A1 *311:10 0.000118081
13 *8649:A1 *8607:A_N 5.83121e-06
14 *8649:A1 *8607:C 5.4155e-06
15 *8649:A1 *8649:B1 0.000293969
16 *8649:A1 *8889:A 2.39856e-05
17 *8649:A1 *606:52 1.9415e-05
18 *8649:A1 *714:116 0.00015995
19 *283:6 *8648:A2 4.85494e-05
20 *283:14 *8607:C 5.42408e-05
21 *283:14 *8648:B1 0.000339321
22 *283:14 *8649:B1 8.93839e-06
23 *283:14 *606:52 1.08758e-05
24 *8646:A3 *8642:A1 0
*RES
1 *8605:Y *283:6 2.74 
2 *283:6 *283:14 5.07 
3 *283:14 *8649:A1 9.59 
4 *283:14 *8607:B 1.6 
5 *283:6 *8642:A1 8.225 
*END

*D_NET *284 0.00313267
*CONN
*I *8652:D I *D sky130_fd_sc_hd__and4bb_1
*I *8607:C I *D sky130_fd_sc_hd__nand3b_4
*I *8649:A2 I *D sky130_fd_sc_hd__a21o_1
*I *8606:Y O *D sky130_fd_sc_hd__nor2_1
*CAP
1 *8652:D 6.86596e-05
2 *8607:C 3.49972e-05
3 *8649:A2 0.000182481
4 *8606:Y 8.44417e-05
5 *284:10 0.000364934
6 *284:8 0.000300557
7 *8607:C *8649:B1 1.56428e-05
8 *8607:C *313:8 0
9 *8649:A2 *8880:A1 0.000202095
10 *8649:A2 *285:8 0.000159964
11 *8649:A2 *285:25 0.000147763
12 *8649:A2 *605:66 6.51688e-05
13 *8649:A2 *745:61 1.23244e-05
14 *8652:D *8652:B_N 1.93609e-05
15 *8652:D *8652:C 4.99619e-05
16 *8652:D *8653:A2 0.00015639
17 *8652:D *8653:B2 8.18626e-05
18 *8652:D *291:38 4.82919e-05
19 *284:8 *8606:A 0.000268613
20 *284:8 *652:58 9.61052e-05
21 *284:8 *654:10 8.30109e-05
22 *284:10 *8606:A 0.000164251
23 *284:10 *8642:B1 4.75576e-05
24 *284:10 *8648:B1 0.000180675
25 *284:10 *8880:A1 1.07797e-05
26 *284:10 *311:10 0
27 *284:10 *654:10 2.98807e-05
28 *284:10 *654:16 0.000197246
29 *8649:A1 *8607:C 5.4155e-06
30 *283:14 *8607:C 5.42408e-05
*RES
1 *8606:Y *284:8 6.765 
2 *284:8 *284:10 4.185 
3 *284:10 *8649:A2 8.4 
4 *284:10 *8607:C 4.41 
5 *284:8 *8652:D 5.79 
*END

*D_NET *285 0.0053329
*CONN
*I *8613:B I *D sky130_fd_sc_hd__or2_1
*I *8650:A3 I *D sky130_fd_sc_hd__o311a_1
*I *8655:A I *D sky130_fd_sc_hd__nand2_1
*I *8654:B I *D sky130_fd_sc_hd__nor2_2
*I *8610:A3 I *D sky130_fd_sc_hd__o311a_1
*I *8630:A3 I *D sky130_fd_sc_hd__o311a_1
*I *8607:Y O *D sky130_fd_sc_hd__nand3b_4
*CAP
1 *8613:B 0
2 *8650:A3 2.89361e-05
3 *8655:A 5.8474e-05
4 *8654:B 7.1239e-05
5 *8610:A3 0.000132352
6 *8630:A3 0.000176748
7 *8607:Y 5.74248e-05
8 *285:31 0.000268807
9 *285:29 0.000158459
10 *285:25 0.000214821
11 *285:21 0.000151116
12 *285:8 0.000234173
13 *8610:A3 *8610:A1 4.99619e-05
14 *8610:A3 *8630:A2 1.47256e-05
15 *8610:A3 *8650:B1 0.000152814
16 *8610:A3 *9002:A2 0
17 *8610:A3 *286:10 9.50342e-06
18 *8610:A3 *286:16 0.000191253
19 *8610:A3 *292:28 0.00034245
20 *8610:A3 *608:35 0.000162318
21 *8630:A3 *8614:A 0.000193801
22 *8630:A3 *8630:B1 2.49909e-05
23 *8630:A3 *8630:C1 8.40269e-05
24 *8630:A3 *8880:A1 0.000121087
25 *8630:A3 *714:116 9.14049e-05
26 *8630:A3 *745:61 0.000173183
27 *8650:A3 *8650:A1 1.85674e-05
28 *8654:B *8608:B 4.99619e-05
29 *8654:B *8654:A 1.16578e-05
30 *285:8 *8880:A1 6.34101e-06
31 *285:8 *745:61 0.000102403
32 *285:25 *8613:A 0.00027416
33 *285:25 *8649:B1 3.08098e-05
34 *285:25 *8650:C1 0.000164874
35 *285:25 *605:66 0.000109931
36 *285:25 *655:43 0.000388784
37 *285:29 *8650:B1 0.000116151
38 *285:29 *608:35 0.000108322
39 *285:31 *8650:B1 0.000231571
40 *285:31 *608:35 0.00022304
41 *8649:A2 *285:8 0.000159964
42 *8649:A2 *285:25 0.000147763
43 *9152:D *8630:A3 2.45351e-05
*RES
1 *8607:Y *285:8 5.745 
2 *285:8 *8630:A3 9.105 
3 *285:8 *285:21 2 
4 *285:21 *285:25 6.33 
5 *285:25 *285:29 3.38 
6 *285:29 *285:31 2.655 
7 *285:31 *8610:A3 9.405 
8 *285:31 *8654:B 4.74 
9 *285:29 *8655:A 4.41 
10 *285:25 *8650:A3 2.215 
11 *285:21 *8613:B 1.6 
*END

*D_NET *286 0.0030659
*CONN
*I *8650:B1 I *D sky130_fd_sc_hd__o311a_1
*I *8616:A I *D sky130_fd_sc_hd__buf_2
*I *8630:B1 I *D sky130_fd_sc_hd__o311a_1
*I *8610:B1 I *D sky130_fd_sc_hd__o311a_1
*I *8608:X O *D sky130_fd_sc_hd__and2_1
*CAP
1 *8650:B1 0.000288626
2 *8616:A 7.53121e-05
3 *8630:B1 8.33807e-05
4 *8610:B1 0
5 *8608:X 0.000125273
6 *286:18 9.81047e-05
7 *286:16 0.000172295
8 *286:10 0.000496159
9 *8616:A *8610:C1 4.42042e-05
10 *8616:A *8630:A2 1.16578e-05
11 *8616:A *292:28 7.67415e-06
12 *8630:B1 *8610:A1 1.44259e-05
13 *8630:B1 *8630:A2 0.000113797
14 *8630:B1 *8889:A 0.000155928
15 *8630:B1 *292:28 2.11084e-05
16 *8650:B1 *8610:A1 0
17 *8650:B1 *8649:B1 0
18 *8650:B1 *608:35 1.34361e-05
19 *8650:B1 *655:47 0
20 *286:10 *8610:A1 0
21 *286:10 *8610:A2 0
22 *286:10 *608:35 6.82231e-05
23 *286:10 *614:56 4.99619e-05
24 *286:16 *8610:A1 4.82863e-05
25 *286:16 *8630:A2 0.000390466
26 *286:16 *292:28 9.27255e-06
27 *286:18 *8610:C1 5.4155e-06
28 *8610:A3 *8650:B1 0.000152814
29 *8610:A3 *286:10 9.50342e-06
30 *8610:A3 *286:16 0.000191253
31 *8630:A3 *8630:B1 2.49909e-05
32 *9147:D *286:10 0
33 *9152:D *8630:B1 4.66108e-05
34 *285:29 *8650:B1 0.000116151
35 *285:31 *8650:B1 0.000231571
*RES
1 *8608:X *286:10 5.685 
2 *286:10 *286:16 5.915 
3 *286:16 *286:18 0.36 
4 *286:18 *8610:B1 1.6 
5 *286:18 *8630:B1 8.39 
6 *286:16 *8616:A 3.2275 
7 *286:10 *8650:B1 9.57 
*END

*D_NET *287 0.00137373
*CONN
*I *8610:C1 I *D sky130_fd_sc_hd__o311a_1
*I *8609:Y O *D sky130_fd_sc_hd__inv_2
*CAP
1 *8610:C1 0.00028688
2 *8609:Y 0.00028688
3 *8610:C1 *8615:A 2.75145e-05
4 *8610:C1 *8883:B2 0.000111448
5 *8610:C1 *292:28 6.1357e-05
6 *8610:C1 *293:6 8.49205e-05
7 *8610:C1 *293:23 0.000233004
8 *8610:C1 *293:138 0.000120655
9 *8610:C1 *614:56 0.000111448
10 *8616:A *8610:C1 4.42042e-05
11 *286:18 *8610:C1 5.4155e-06
*RES
1 *8609:Y *8610:C1 13.875 
*END

*D_NET *288 0.000619261
*CONN
*I *8617:A1 I *D sky130_fd_sc_hd__o221a_1
*I *8611:Y O *D sky130_fd_sc_hd__nor2_1
*CAP
1 *8617:A1 0.000224575
2 *8611:Y 0.000224575
3 *8617:A1 *8609:A 4.80285e-05
4 *8617:A1 *8612:A 5.83121e-06
5 *8617:A1 *8617:A2 8.40269e-05
6 *8617:A1 *8617:B1 0
7 *8617:A1 *614:56 7.67415e-06
8 *8617:A1 *651:19 2.16917e-05
9 *8617:A1 *651:28 2.8585e-06
*RES
1 *8611:Y *8617:A1 6.44 
*END

*D_NET *289 0.00180292
*CONN
*I *8617:A2 I *D sky130_fd_sc_hd__o221a_1
*I *8612:X O *D sky130_fd_sc_hd__and2_1
*CAP
1 *8617:A2 0.000494222
2 *8612:X 0.000494222
3 *8617:A2 *8612:A 4.19967e-05
4 *8617:A2 *8618:B1 0
5 *8617:A2 *8622:C1 0.000113797
6 *8617:A2 *8883:B2 0.000112123
7 *8617:A2 *293:138 0.000307038
8 *8617:A2 *614:56 0.000155491
9 *8617:A2 *656:27 0
10 *8617:A2 *656:57 0
11 *8617:A1 *8617:A2 8.40269e-05
*RES
1 *8612:X *8617:A2 19.84 
*END

*D_NET *290 0.00214544
*CONN
*I *8614:A I *D sky130_fd_sc_hd__clkbuf_2
*I *8613:X O *D sky130_fd_sc_hd__or2_1
*CAP
1 *8614:A 0.00070314
2 *8613:X 0.00070314
3 *8614:A *8630:C1 8.43862e-05
4 *8614:A *8654:A 0
5 *8614:A *291:10 2.531e-05
6 *8614:A *291:18 0.000252282
7 *8614:A *735:1590 0.000140844
8 *8630:A3 *8614:A 0.000193801
9 *9152:D *8614:A 4.25379e-05
*RES
1 *8613:X *8614:A 17.985 
*END

*D_NET *291 0.00814762
*CONN
*I *8615:A I *D sky130_fd_sc_hd__clkbuf_4
*I *8647:B2 I *D sky130_fd_sc_hd__o221a_1
*I *8640:A2 I *D sky130_fd_sc_hd__o221a_1
*I *8636:B2 I *D sky130_fd_sc_hd__o221a_1
*I *8633:B2 I *D sky130_fd_sc_hd__o221a_1
*I *8653:A2 I *D sky130_fd_sc_hd__o221a_1
*I *8642:B2 I *D sky130_fd_sc_hd__o221a_1
*I *8614:X O *D sky130_fd_sc_hd__clkbuf_2
*CAP
1 *8615:A 6.09957e-05
2 *8647:B2 0
3 *8640:A2 0
4 *8636:B2 0
5 *8633:B2 9.79984e-05
6 *8653:A2 0.000112442
7 *8642:B2 0
8 *8614:X 0.000522812
9 *291:58 0.000315007
10 *291:50 0.000752138
11 *291:38 0.000606853
12 *291:29 0.000264255
13 *291:18 0.000383866
14 *291:10 0.000887586
15 *8615:A *735:1594 9.37731e-05
16 *8615:A *745:61 4.76503e-05
17 *8633:B2 *8633:C1 3.17194e-05
18 *8633:B2 *8636:A2 0.000122473
19 *8633:B2 *8636:B1 0.000136182
20 *8633:B2 *8640:A1 1.34361e-05
21 *8653:A2 *8644:A 0.000122957
22 *8653:A2 *8644:B 0.000119756
23 *8653:A2 *8647:A1 5.55258e-05
24 *8653:A2 *8652:A_N 0.000192125
25 *8653:A2 *8653:A1 4.66108e-05
26 *8653:A2 *8653:B2 2.03356e-05
27 *291:10 *8608:B 0
28 *291:10 *8630:C1 1.19928e-05
29 *291:18 *735:1590 0.000220493
30 *291:18 *735:1594 1.07797e-05
31 *291:18 *745:61 0.000659641
32 *291:29 *735:1590 9.43857e-05
33 *291:29 *745:61 8.80798e-05
34 *291:38 *8647:A1 5.55258e-05
35 *291:38 *8647:B1 4.82919e-05
36 *291:38 *8652:A_N 0.000145515
37 *291:38 *8652:C 9.6537e-05
38 *291:50 *8640:B1 4.43682e-05
39 *291:50 *8640:B2 3.00381e-05
40 *291:50 *8647:A1 0.000120655
41 *291:50 *8652:C 9.65388e-05
42 *291:50 *663:16 3.83041e-05
43 *291:50 *663:22 0.000111518
44 *291:58 *8636:A1 1.65192e-05
45 *291:58 *8640:A1 0.000178504
46 *291:58 *8640:B2 2.96334e-05
47 *291:58 *9083:CLK 0
48 *291:58 *293:101 0
49 *8610:C1 *8615:A 2.75145e-05
50 *8614:A *291:10 2.531e-05
51 *8614:A *291:18 0.000252282
52 *8641:A3 *291:50 8.23457e-05
53 *8652:D *8653:A2 0.00015639
54 *8652:D *291:38 4.82919e-05
55 *9152:D *291:10 0.000451664
*RES
1 *8614:X *291:10 10.275 
2 *291:10 *291:18 9.78 
3 *291:18 *8642:B2 3.6 
4 *291:18 *291:29 4.145 
5 *291:29 *8653:A2 5.5 
6 *291:29 *291:38 2.52 
7 *291:38 *291:50 8.895 
8 *291:50 *291:58 6.83 
9 *291:58 *8633:B2 6.3 
10 *291:58 *8636:B2 3.6 
11 *291:50 *8640:A2 1.6 
12 *291:38 *8647:B2 1.6 
13 *291:10 *8615:A 5.175 
*END

*D_NET *292 0.013861
*CONN
*I *8617:B2 I *D sky130_fd_sc_hd__o221a_1
*I *8622:B2 I *D sky130_fd_sc_hd__o221a_1
*I *8626:B2 I *D sky130_fd_sc_hd__o221a_1
*I *8619:B2 I *D sky130_fd_sc_hd__o221a_1
*I *9003:A2 I *D sky130_fd_sc_hd__a21o_1
*I *9009:A2 I *D sky130_fd_sc_hd__a21o_1
*I *9011:A2 I *D sky130_fd_sc_hd__a21o_1
*I *9013:A2 I *D sky130_fd_sc_hd__a21o_1
*I *9007:A2 I *D sky130_fd_sc_hd__a21o_1
*I *9005:A2 I *D sky130_fd_sc_hd__a21o_1
*I *8615:X O *D sky130_fd_sc_hd__clkbuf_4
*CAP
1 *8617:B2 0
2 *8622:B2 0
3 *8626:B2 2.42778e-05
4 *8619:B2 8.74185e-05
5 *9003:A2 0
6 *9009:A2 7.82864e-05
7 *9011:A2 0.00060767
8 *9013:A2 0.000145739
9 *9007:A2 0.000174874
10 *9005:A2 1.41866e-05
11 *8615:X 7.87655e-05
12 *292:146 0.000249526
13 *292:142 0.000680978
14 *292:130 0.000583407
15 *292:80 0.000877494
16 *292:74 0.000648449
17 *292:49 0.000949789
18 *292:38 0.00043523
19 *292:28 0.000996746
20 *292:6 0.00102356
21 *8619:B2 *8619:A2 4.99619e-05
22 *8619:B2 *8619:B1 3.17194e-05
23 *8619:B2 *8636:B1 1.15688e-05
24 *8619:B2 *8854:A1 7.63204e-05
25 *8619:B2 *9150:CLK 0
26 *8619:B2 *614:60 5.53249e-06
27 *8619:B2 *616:54 0.000120186
28 *8626:B2 *8860:A1 4.82863e-05
29 *9005:A2 *9005:A1 8.65905e-05
30 *9005:A2 *9005:B1 8.65905e-05
31 *9007:A2 *9007:B1 0.000198182
32 *9007:A2 *9145:CLK 2.89963e-05
33 *9007:A2 *612:42 0.00023408
34 *9009:A2 *9009:A1 4.82863e-05
35 *9009:A2 *9009:B1 0.00011903
36 *9009:A2 *9012:A1 2.49909e-05
37 *9009:A2 *9012:A2 0.000168027
38 *9011:A2 *9183:A 9.01628e-05
39 *9011:A2 *650:10 3.51596e-05
40 *9013:A2 *711:62 5.60949e-05
41 *9013:A2 *735:625 8.88715e-05
42 *292:6 *293:23 0.000122337
43 *292:28 *8608:B 0.000155274
44 *292:28 *8630:A2 8.0518e-05
45 *292:28 *8657:B 6.57053e-05
46 *292:28 *9002:A1 0
47 *292:28 *9002:A2 5.05437e-05
48 *292:28 *9003:A1 0.000156697
49 *292:28 *9003:B1 5.83121e-06
50 *292:28 *293:6 8.49205e-05
51 *292:28 *293:23 7.14699e-05
52 *292:28 *319:23 0
53 *292:28 *735:562 1.44259e-05
54 *292:38 *8608:B 0.000120765
55 *292:38 *8657:B 1.12578e-05
56 *292:38 *8658:A 0.000121733
57 *292:38 *9003:B1 4.91041e-05
58 *292:38 *9005:A1 8.65961e-05
59 *292:38 *9005:B1 3.57349e-05
60 *292:49 *9005:A1 5.8718e-05
61 *292:49 *9005:B1 0.000202775
62 *292:49 *647:20 5.16348e-05
63 *292:74 *8749:B1 0
64 *292:74 *9005:A1 1.02692e-05
65 *292:74 *9146:SET_B 5.82254e-05
66 *292:74 *610:21 0
67 *292:74 *665:10 0.000157083
68 *292:74 *735:588 6.20952e-05
69 *292:74 *735:597 3.56184e-05
70 *292:80 *9012:A1 3.39981e-05
71 *292:80 *665:10 1.26626e-05
72 *292:130 *735:1594 6.28765e-05
73 *292:130 *745:61 0.000106655
74 *292:142 *8612:B 0.000131372
75 *292:142 *8622:A2 3.26889e-05
76 *292:142 *8622:B1 4.82919e-05
77 *292:142 *8622:C1 0.000111479
78 *292:142 *9147:RESET_B 1.83756e-05
79 *292:142 *735:1594 7.89689e-05
80 *292:142 *745:61 0.000140912
81 *292:146 *8622:A2 5.53175e-05
82 *292:146 *8622:C1 1.23707e-05
83 *292:146 *8626:C1 0.000124007
84 *8610:A3 *292:28 0.00034245
85 *8610:C1 *292:28 6.1357e-05
86 *8616:A *292:28 7.67415e-06
87 *8619:A1 *8619:B2 5.4155e-06
88 *8630:B1 *292:28 2.11084e-05
89 *9002:B1 *292:28 5.69805e-05
90 *9139:D *292:49 0
91 *9139:D *292:74 0
92 *9145:D *292:49 0
93 *9146:D *292:74 2.04694e-05
94 *9150:D *8626:B2 7.49327e-05
95 *9150:D *292:146 0.000124007
96 *9166:D *9013:A2 0.000225182
97 *9166:D *292:80 0.000249928
98 *9167:D *9011:A2 0.000184986
99 *9167:D *9013:A2 7.70828e-05
100 *9167:D *292:80 0.000109016
101 *234:22 *292:74 0
102 *275:106 *9013:A2 8.15676e-05
103 *275:106 *292:80 0.0001052
104 *286:16 *292:28 9.27255e-06
*RES
1 *8615:X *292:6 2.74 
2 *292:6 *292:28 19.645 
3 *292:28 *292:38 3.39 
4 *292:38 *9005:A2 2.395 
5 *292:38 *292:49 8.225 
6 *292:49 *9007:A2 8.88 
7 *292:49 *292:74 8.01 
8 *292:74 *292:80 4.23 
9 *292:80 *9013:A2 8.1 
10 *292:80 *9011:A2 11.325 
11 *292:74 *9009:A2 6.255 
12 *292:28 *9003:A2 1.6 
13 *292:6 *292:130 3.38 
14 *292:130 *292:142 10.775 
15 *292:142 *292:146 3.225 
16 *292:146 *8619:B2 8.3 
17 *292:146 *8626:B2 2.395 
18 *292:142 *8622:B2 1.6 
19 *292:130 *8617:B2 3.6 
*END

*D_NET *293 0.0137058
*CONN
*I *8619:C1 I *D sky130_fd_sc_hd__o221a_1
*I *8626:C1 I *D sky130_fd_sc_hd__o221a_1
*I *8640:C1 I *D sky130_fd_sc_hd__o221a_1
*I *8633:C1 I *D sky130_fd_sc_hd__o221a_1
*I *8636:C1 I *D sky130_fd_sc_hd__o221a_1
*I *8653:C1 I *D sky130_fd_sc_hd__o221a_1
*I *8647:C1 I *D sky130_fd_sc_hd__o221a_1
*I *8642:C1 I *D sky130_fd_sc_hd__o221a_1
*I *8622:C1 I *D sky130_fd_sc_hd__o221a_1
*I *8617:C1 I *D sky130_fd_sc_hd__o221a_1
*I *8616:X O *D sky130_fd_sc_hd__buf_2
*CAP
1 *8619:C1 0
2 *8626:C1 0.000111615
3 *8640:C1 0.000121593
4 *8633:C1 9.05911e-05
5 *8636:C1 0
6 *8653:C1 0.000590574
7 *8647:C1 0
8 *8642:C1 0.000168262
9 *8622:C1 0.00039213
10 *8617:C1 8.27071e-05
11 *8616:X 1.8095e-05
12 *293:138 0.000417205
13 *293:101 0.000345607
14 *293:93 0.00103742
15 *293:70 0.00125966
16 *293:59 9.80428e-05
17 *293:42 0.000569292
18 *293:25 0.000703392
19 *293:23 0.000368519
20 *293:6 0.000163731
21 *8617:C1 *8617:B1 5.94962e-05
22 *8617:C1 *614:56 3.00381e-05
23 *8617:C1 *714:95 7.22182e-05
24 *8617:C1 *745:61 0.000135912
25 *8622:C1 *8612:A 4.99619e-05
26 *8622:C1 *8612:B 3.23663e-05
27 *8622:C1 *8883:B2 0.000114918
28 *8622:C1 *9147:RESET_B 4.00541e-06
29 *8622:C1 *735:1594 4.24621e-05
30 *8626:C1 *8622:A1 0.000120186
31 *8626:C1 *8622:A2 0.000150425
32 *8633:C1 *8636:A1 0.000183488
33 *8633:C1 *8636:B1 0.000136877
34 *8633:C1 *662:53 3.57349e-05
35 *8640:C1 *8640:A1 0
36 *8640:C1 *663:16 8.53113e-06
37 *8642:C1 *8607:A_N 0
38 *8642:C1 *8642:A2 8.40213e-05
39 *8642:C1 *8642:B1 7.08798e-05
40 *8642:C1 *311:10 1.80164e-05
41 *8642:C1 *653:21 5.83121e-06
42 *8653:C1 *8644:A 8.63908e-05
43 *8653:C1 *8644:B 2.11084e-05
44 *8653:C1 *8653:B2 8.41015e-06
45 *8653:C1 *607:48 0.000701895
46 *293:42 *8652:A_N 4.21314e-05
47 *293:42 *8883:B2 0.000416204
48 *293:42 *313:19 0.000155234
49 *293:42 *735:1590 0.000780944
50 *293:42 *735:1594 8.79281e-05
51 *293:59 *8647:B1 1.01643e-05
52 *293:59 *8652:A_N 0.000113527
53 *293:59 *8883:B2 4.36573e-06
54 *293:59 *735:1590 0.000144909
55 *293:70 *8647:B1 8.7152e-06
56 *293:70 *735:1590 5.02126e-06
57 *293:93 *8648:A3 3.14002e-05
58 *293:93 *307:10 1.92979e-05
59 *293:93 *607:48 3.65787e-05
60 *293:93 *663:16 8.41703e-06
61 *293:101 *8605:B 1.85674e-05
62 *293:101 *8605:C 0
63 *293:101 *8636:A1 1.08758e-05
64 *293:101 *8648:A3 0.000285721
65 *293:101 *662:53 0.000239807
66 *293:138 *8622:A1 0.000154262
67 *293:138 *8622:A2 0.00017329
68 *293:138 *614:56 0.000539437
69 *293:138 *656:72 1.01152e-05
70 *8610:C1 *293:6 8.49205e-05
71 *8610:C1 *293:23 0.000233004
72 *8610:C1 *293:138 0.000120655
73 *8617:A2 *8622:C1 0.000113797
74 *8617:A2 *293:138 0.000307038
75 *8633:B2 *8633:C1 3.17194e-05
76 *8634:C *8633:C1 3.26889e-05
77 *9148:D *8622:C1 0.00024373
78 *9156:D *293:70 3.16057e-06
79 *9157:D *293:59 0
80 *282:18 *293:101 0
81 *291:58 *293:101 0
82 *292:6 *293:23 0.000122337
83 *292:28 *293:6 8.49205e-05
84 *292:28 *293:23 7.14699e-05
85 *292:142 *8622:C1 0.000111479
86 *292:146 *8622:C1 1.23707e-05
87 *292:146 *8626:C1 0.000124007
*RES
1 *8616:X *293:6 2.395 
2 *293:6 *8617:C1 8.045 
3 *293:6 *293:23 2.175 
4 *293:23 *293:25 2 
5 *293:25 *8622:C1 12.405 
6 *293:25 *293:42 11.07 
7 *293:42 *8642:C1 6.495 
8 *293:42 *293:59 2.34 
9 *293:59 *8647:C1 3.6 
10 *293:59 *293:70 0.7325 
11 *293:70 *8653:C1 6.2293 
12 *293:70 *293:93 2.14353 
13 *293:93 *293:101 8.0825 
14 *293:101 *8636:C1 1.6 
15 *293:101 *8633:C1 8.555 
16 *293:93 *8640:C1 5.2275 
17 *293:23 *293:138 10.205 
18 *293:138 *8626:C1 6.735 
19 *293:138 *8619:C1 3.6 
*END

*D_NET *294 0.000773767
*CONN
*I *8619:A2 I *D sky130_fd_sc_hd__o221a_1
*I *8618:X O *D sky130_fd_sc_hd__o21a_1
*CAP
1 *8619:A2 0.000164315
2 *8618:X 0.000164315
3 *8619:A2 *8618:A1 4.66108e-05
4 *8619:A2 *8618:B1 4.82863e-05
5 *8619:A2 *651:28 9.27326e-05
6 *8619:A2 *651:43 0.000136526
7 *8619:A2 *656:35 7.10201e-05
8 *8619:A1 *8619:A2 0
9 *8619:B2 *8619:A2 4.99619e-05
*RES
1 *8618:X *8619:A2 7.685 
*END

*D_NET *295 0.00399932
*CONN
*I *8634:B I *D sky130_fd_sc_hd__and4b_1
*I *8631:A I *D sky130_fd_sc_hd__and3_1
*I *8622:A1 I *D sky130_fd_sc_hd__o221a_1
*I *8620:Y O *D sky130_fd_sc_hd__nor4_1
*CAP
1 *8634:B 9.11699e-05
2 *8631:A 0.000254303
3 *8622:A1 0.000280482
4 *8620:Y 0.000346801
5 *295:23 0.000542076
6 *295:8 0.000823886
7 *8622:A1 *8618:B1 0
8 *8622:A1 *8636:B1 0
9 *8622:A1 *8854:A1 0.00011325
10 *8622:A1 *614:60 0.000214383
11 *8622:A1 *656:27 2.92838e-05
12 *8622:A1 *656:72 1.16597e-05
13 *8634:B *8652:C 1.4399e-05
14 *295:8 *8618:B1 0.000419386
15 *295:8 *8620:B 5.83121e-06
16 *295:8 *8620:D 3.74161e-05
17 *295:23 *8618:B1 0
18 *295:23 *8636:B1 0
19 *8604:B *295:23 0
20 *8604:C *295:8 7.67415e-06
21 *8604:D *295:23 8.83166e-05
22 *8626:C1 *8622:A1 0.000120186
23 *8634:D *8634:B 5.02217e-05
24 *8634:D *295:23 1.1561e-05
25 *281:30 *8631:A 0.000382769
26 *282:18 *8634:B 0
27 *282:18 *295:23 0
28 *293:138 *8622:A1 0.000154262
*RES
1 *8620:Y *295:8 8.19 
2 *295:8 *8622:A1 9.96 
3 *295:8 *295:23 3.165 
4 *295:23 *8631:A 7.845 
5 *295:23 *8634:B 5.175 
*END

*D_NET *296 0.00201252
*CONN
*I *8622:A2 I *D sky130_fd_sc_hd__o221a_1
*I *8621:X O *D sky130_fd_sc_hd__o31a_1
*CAP
1 *8622:A2 0.000494044
2 *8621:X 0.000494044
3 *8622:A2 *614:56 3.83194e-05
4 *8622:A2 *651:43 0.000158965
5 *8622:A2 *651:54 0.000145515
6 *8622:A2 *656:27 7.23533e-05
7 *8622:A2 *656:57 5.23362e-05
8 *8622:A2 *656:72 0.000145227
9 *8626:C1 *8622:A2 0.000150425
10 *292:142 *8622:A2 3.26889e-05
11 *292:146 *8622:A2 5.53175e-05
12 *293:138 *8622:A2 0.00017329
*RES
1 *8621:X *8622:A2 15.975 
*END

*D_NET *297 0.00304554
*CONN
*I *8624:B I *D sky130_fd_sc_hd__nor2_1
*I *8632:A3 I *D sky130_fd_sc_hd__o31a_1
*I *8635:A4 I *D sky130_fd_sc_hd__o41a_1
*I *8627:C I *D sky130_fd_sc_hd__or3_1
*I *8628:A2 I *D sky130_fd_sc_hd__o21ai_1
*I *8623:X O *D sky130_fd_sc_hd__or4_2
*CAP
1 *8624:B 8.10301e-05
2 *8632:A3 0.000175203
3 *8635:A4 0
4 *8627:C 0.000149272
5 *8628:A2 1.36534e-05
6 *8623:X 0
7 *297:42 0.000247212
8 *297:21 0.000410931
9 *297:10 0.000376332
10 *297:4 0.000254059
11 *8624:B *8623:A 1.85674e-05
12 *8627:C *8601:A 2.41125e-05
13 *8627:C *8635:A1 1.5874e-05
14 *8627:C *8635:A2 4.31465e-05
15 *8627:C *8635:A3 1.83847e-05
16 *8627:C *8635:B1 5.4155e-06
17 *8628:A2 *8628:A1 4.66108e-05
18 *8632:A3 *8635:A2 7.00889e-06
19 *8632:A3 *8635:A3 9.02717e-05
20 *8632:A3 *8639:A3 0.0001424
21 *8632:A3 *8639:B1 5.83121e-06
22 *8632:A3 *661:38 7.10957e-05
23 *8632:A3 *735:1530 5.83373e-05
24 *297:10 *8602:A 6.10014e-05
25 *297:10 *8623:A 4.99619e-05
26 *297:10 *8628:B1 7.9642e-06
27 *297:10 *8629:A 0
28 *297:10 *735:1514 0.000138273
29 *297:21 *8628:B1 1.7635e-05
30 *297:21 *8633:A1 3.38906e-05
31 *297:21 *8635:A1 1.74162e-05
32 *297:21 *660:27 6.25436e-05
33 *297:21 *735:1514 0.00021154
34 *297:42 *8635:A1 4.18603e-06
35 *297:42 *8635:A3 9.50342e-06
36 *297:42 *8875:A1 0
37 *297:42 *735:1530 0
38 *8604:C *8628:A2 4.66108e-05
39 *9153:D *8627:C 8.49205e-05
40 *9153:D *297:21 4.535e-05
*RES
1 *8623:X *297:4 1.6 
2 *297:4 *297:10 4.775 
3 *297:10 *8628:A2 4.05 
4 *297:10 *297:21 3.93 
5 *297:21 *8627:C 6.7875 
6 *297:21 *297:42 2.87 
7 *297:42 *8635:A4 1.6 
8 *297:42 *8632:A3 9.605 
9 *297:4 *8624:B 3.01 
*END

*D_NET *298 0.00191187
*CONN
*I *8626:A1 I *D sky130_fd_sc_hd__o221a_1
*I *8624:Y O *D sky130_fd_sc_hd__nor2_1
*CAP
1 *8626:A1 0.000609688
2 *8624:Y 0.000609688
3 *8626:A1 *8625:B1 6.3014e-05
4 *8626:A1 *8860:A1 3.35199e-05
5 *8626:A1 *9151:RESET_B 8.07672e-05
6 *8626:A1 *658:47 0
7 *8626:A1 *659:27 0.000249921
8 *8626:A1 *735:1503 0
9 *8626:A1 *735:1514 0
10 *9151:D *8626:A1 0.000265276
*RES
1 *8624:Y *8626:A1 16.35 
*END

*D_NET *299 0.000885436
*CONN
*I *8626:A2 I *D sky130_fd_sc_hd__o221a_1
*I *8625:X O *D sky130_fd_sc_hd__o41a_1
*CAP
1 *8626:A2 0.000148325
2 *8625:X 0.000148325
3 *8626:A2 *8633:B1 4.91927e-05
4 *8626:A2 *8636:B1 0.000291358
5 *8626:A2 *9083:D 8.8266e-05
6 *9149:D *8626:A2 0.00015997
*RES
1 *8625:X *8626:A2 11.415 
*END

*D_NET *300 0.00197081
*CONN
*I *8629:A I *D sky130_fd_sc_hd__nand2_1
*I *8639:A3 I *D sky130_fd_sc_hd__o31a_1
*I *8627:X O *D sky130_fd_sc_hd__or3_1
*CAP
1 *8629:A 0.000325166
2 *8639:A3 0.000195088
3 *8627:X 6.30221e-05
4 *300:10 0.000583276
5 *8629:A *8602:A 0
6 *8629:A *8632:A1 0
7 *8629:A *9083:D 4.11666e-05
8 *8629:A *659:61 0.000153883
9 *8629:A *660:27 0
10 *8629:A *660:42 1.86112e-05
11 *8639:A3 *8632:A2 5.17961e-05
12 *8639:A3 *8633:A2 0.000124007
13 *8639:A3 *8639:B1 1.47256e-05
14 *8639:A3 *661:38 1.62814e-05
15 *8639:A3 *662:53 0
16 *300:10 *8632:A2 2.05571e-05
17 *300:10 *659:65 8.65905e-05
18 *8632:A3 *8639:A3 0.0001424
19 *279:18 *8629:A 0.000134236
20 *297:10 *8629:A 0
*RES
1 *8627:X *300:10 4.6275 
2 *300:10 *8639:A3 7.3275 
3 *300:10 *8629:A 10.5825 
*END

*D_NET *301 0.000338721
*CONN
*I *8629:B I *D sky130_fd_sc_hd__nand2_1
*I *8628:Y O *D sky130_fd_sc_hd__o21ai_1
*CAP
1 *8629:B 5.35535e-05
2 *8628:Y 5.35535e-05
3 *8629:B *8628:A1 0.000171845
4 *8629:B *8630:C1 2.66586e-05
5 *8604:C *8629:B 3.31103e-05
*RES
1 *8628:Y *8629:B 5.045 
*END

*D_NET *302 0.00387711
*CONN
*I *8630:C1 I *D sky130_fd_sc_hd__o311a_1
*I *8629:Y O *D sky130_fd_sc_hd__nand2_1
*CAP
1 *8630:C1 0.00127784
2 *8629:Y 0.00127784
3 *8630:C1 *8618:B1 4.16454e-05
4 *8630:C1 *8628:A1 2.8585e-06
5 *8630:C1 *8630:A1 0
6 *8630:C1 *9152:CLK 4.82919e-05
7 *8630:C1 *9152:RESET_B 4.31782e-05
8 *8630:C1 *659:61 2.65814e-06
9 *8604:C *8630:C1 0.000733255
10 *8604:D *8630:C1 0.000160629
11 *8614:A *8630:C1 8.43862e-05
12 *8629:B *8630:C1 2.66586e-05
13 *8630:A3 *8630:C1 8.40269e-05
14 *9152:D *8630:C1 8.18542e-05
15 *291:10 *8630:C1 1.19928e-05
*RES
1 *8629:Y *8630:C1 22.67 
*END

*D_NET *303 0.000492014
*CONN
*I *8633:A1 I *D sky130_fd_sc_hd__o221a_1
*I *8631:X O *D sky130_fd_sc_hd__and3_1
*CAP
1 *8633:A1 0.000188574
2 *8631:X 0.000188574
3 *8633:A1 *8633:A2 4.82863e-05
4 *8633:A1 *8875:A1 9.26907e-06
5 *8633:A1 *735:1514 4.55864e-06
6 *281:24 *8633:A1 1.88602e-05
7 *297:21 *8633:A1 3.38906e-05
*RES
1 *8631:X *8633:A1 10.275 
*END

*D_NET *304 0.00117316
*CONN
*I *8633:A2 I *D sky130_fd_sc_hd__o221a_1
*I *8632:X O *D sky130_fd_sc_hd__o31a_1
*CAP
1 *8633:A2 0.000326161
2 *8632:X 0.000326161
3 *8633:A2 *8635:B1 0.000128197
4 *8633:A2 *8636:A2 0.00011964
5 *8633:A2 *661:38 1.34594e-05
6 *8633:A2 *662:43 6.07575e-06
7 *8633:A2 *662:53 4.66108e-05
8 *8633:A1 *8633:A2 4.82863e-05
9 *8639:A3 *8633:A2 0.000124007
10 *9153:D *8633:A2 3.45588e-05
*RES
1 *8632:X *8633:A2 13.035 
*END

*D_NET *305 0.00422222
*CONN
*I *8636:A1 I *D sky130_fd_sc_hd__o221a_1
*I *8652:C I *D sky130_fd_sc_hd__and4bb_1
*I *8634:X O *D sky130_fd_sc_hd__and4b_1
*CAP
1 *8636:A1 0.000293385
2 *8652:C 0.0005753
3 *8634:X 0
4 *305:4 0.000868684
5 *8636:A1 *8636:B1 1.15688e-05
6 *8636:A1 *8648:A3 0
7 *8636:A1 *605:66 7.06865e-05
8 *8636:A1 *662:43 0
9 *8636:A1 *662:53 6.98728e-05
10 *8652:C *8634:A_N 0.0001249
11 *8652:C *8642:A2 0.000116165
12 *8652:C *8647:B1 4.82919e-05
13 *8652:C *8648:A2 6.05917e-05
14 *8652:C *8653:B2 0.000124007
15 *8652:C *8883:B2 0
16 *8652:C *605:66 0.000464505
17 *8652:C *652:10 4.05023e-05
18 *8652:C *662:66 5.98004e-06
19 *8633:C1 *8636:A1 0.000183488
20 *8634:B *8652:C 1.4399e-05
21 *8634:C *8652:C 0.00012657
22 *8637:B *8652:C 6.39365e-05
23 *8652:D *8652:C 4.99619e-05
24 *9157:D *8652:C 0.000312964
25 *282:18 *8652:C 7.09999e-05
26 *282:22 *8652:C 0.000134509
27 *282:42 *8652:C 0.000170484
28 *291:38 *8652:C 9.6537e-05
29 *291:50 *8652:C 9.65388e-05
30 *291:58 *8636:A1 1.65192e-05
31 *293:101 *8636:A1 1.08758e-05
*RES
1 *8634:X *305:4 1.6 
2 *305:4 *8652:C 21.35 
3 *305:4 *8636:A1 10.895 
*END

*D_NET *306 0.000763755
*CONN
*I *8636:A2 I *D sky130_fd_sc_hd__o221a_1
*I *8635:X O *D sky130_fd_sc_hd__o41a_1
*CAP
1 *8636:A2 0.000203923
2 *8635:X 0.000203923
3 *8636:A2 *8640:A1 4.31106e-05
4 *8636:A2 *8875:A1 7.06865e-05
5 *8633:A2 *8636:A2 0.00011964
6 *8633:B2 *8636:A2 0.000122473
*RES
1 *8635:X *8636:A2 10.755 
*END

*D_NET *307 0.00256455
*CONN
*I *8638:B I *D sky130_fd_sc_hd__nor2_1
*I *8648:A3 I *D sky130_fd_sc_hd__o31a_1
*I *8637:X O *D sky130_fd_sc_hd__or2_1
*CAP
1 *8638:B 0
2 *8648:A3 0.000260515
3 *8637:X 7.94861e-05
4 *307:10 0.000340001
5 *8648:A3 *8605:B 3.83895e-05
6 *8648:A3 *8605:C 1.34594e-05
7 *8648:A3 *8634:A_N 1.0183e-05
8 *8648:A3 *8645:B 8.34281e-06
9 *8648:A3 *8648:A2 0.000201508
10 *8648:A3 *313:8 0.000576853
11 *8648:A3 *662:53 0.000123225
12 *8648:A3 *662:66 1.73877e-05
13 *8648:A3 *664:8 7.9642e-06
14 *8648:A3 *664:10 0.000134245
15 *8648:A3 *664:14 0.000206811
16 *307:10 *663:16 3.54684e-05
17 *307:10 *664:8 0.000107618
18 *307:10 *714:158 1.83847e-05
19 *8636:A1 *8648:A3 0
20 *282:18 *8648:A3 4.82863e-05
21 *293:93 *8648:A3 3.14002e-05
22 *293:93 *307:10 1.92979e-05
23 *293:101 *8648:A3 0.000285721
*RES
1 *8637:X *307:10 5.43 
2 *307:10 *8648:A3 13.575 
3 *307:10 *8638:B 3.6 
*END

*D_NET *308 0.00047881
*CONN
*I *8640:B1 I *D sky130_fd_sc_hd__o221a_1
*I *8638:Y O *D sky130_fd_sc_hd__nor2_1
*CAP
1 *8640:B1 0.000173358
2 *8638:Y 0.000173358
3 *8640:B1 *8640:B2 3.26889e-05
4 *8640:B1 *663:16 2.75145e-05
5 *8640:B1 *663:22 2.75229e-05
6 *291:50 *8640:B1 4.43682e-05
*RES
1 *8638:Y *8640:B1 5.645 
*END

*D_NET *309 0.00135604
*CONN
*I *8640:B2 I *D sky130_fd_sc_hd__o221a_1
*I *8639:X O *D sky130_fd_sc_hd__o31a_1
*CAP
1 *8640:B2 0.000455761
2 *8639:X 0.000455761
3 *8640:B2 *8635:B1 1.17036e-05
4 *8640:B2 *8639:B1 0
5 *8640:B2 *9083:CLK 0.000137097
6 *8640:B2 *9154:RESET_B 0
7 *8640:B2 *662:18 2.01256e-05
8 *8640:B2 *714:171 0
9 *8640:B2 *735:1542 8.53113e-06
10 *8640:B1 *8640:B2 3.26889e-05
11 *9154:D *8640:B2 0.000174699
12 *291:50 *8640:B2 3.00381e-05
13 *291:58 *8640:B2 2.96334e-05
*RES
1 *8639:X *8640:B2 15.765 
*END

*D_NET *310 0.00119016
*CONN
*I *8642:A2 I *D sky130_fd_sc_hd__o221a_1
*I *8641:X O *D sky130_fd_sc_hd__o31a_1
*CAP
1 *8642:A2 0.000174212
2 *8641:X 0.000174212
3 *8642:A2 *8646:A1 0.00015896
4 *8642:A2 *8647:A2 2.30292e-05
5 *8642:A2 *311:10 5.2711e-05
6 *8642:A2 *652:10 6.28843e-05
7 *8642:A2 *662:76 0.000158965
8 *8642:A1 *8642:A2 1.91597e-05
9 *8642:C1 *8642:A2 8.40213e-05
10 *8646:A3 *8642:A2 7.22354e-05
11 *8652:C *8642:A2 0.000116165
12 *9156:D *8642:A2 8.65961e-05
13 *282:26 *8642:A2 7.00889e-06
*RES
1 *8641:X *8642:A2 12.825 
*END

*D_NET *311 0.00352642
*CONN
*I *8644:B I *D sky130_fd_sc_hd__nor2_1
*I *8651:A3 I *D sky130_fd_sc_hd__o31a_1
*I *8643:X O *D sky130_fd_sc_hd__or4_1
*CAP
1 *8644:B 0.00020703
2 *8651:A3 0
3 *8643:X 0.000756778
4 *311:10 0.000963808
5 *8644:B *8644:A 5.60615e-05
6 *8644:B *8647:A1 0.000385322
7 *8644:B *8651:A2 4.61196e-05
8 *8644:B *654:16 2.37234e-05
9 *8644:B *714:116 0.000147127
10 *311:10 *8607:A_N 4.82919e-05
11 *311:10 *8642:B1 0.000209025
12 *311:10 *8643:B 4.40325e-06
13 *311:10 *8646:A1 4.21973e-05
14 *311:10 *654:16 1.88604e-05
15 *311:10 *662:70 1.91597e-05
16 *311:10 *662:76 1.91597e-05
17 *311:10 *714:116 5.33085e-05
18 *8642:A1 *311:10 0.000118081
19 *8642:A2 *311:10 5.2711e-05
20 *8642:C1 *311:10 1.80164e-05
21 *8646:A3 *311:10 0.000124007
22 *8653:A2 *8644:B 0.000119756
23 *8653:C1 *8644:B 2.11084e-05
24 *282:26 *311:10 7.23635e-05
25 *284:10 *311:10 0
*RES
1 *8643:X *311:10 13.29 
2 *311:10 *8651:A3 3.6 
3 *311:10 *8644:B 9.66 
*END

*D_NET *312 0.00262716
*CONN
*I *8647:A1 I *D sky130_fd_sc_hd__o221a_1
*I *8644:Y O *D sky130_fd_sc_hd__nor2_1
*CAP
1 *8647:A1 0.000781985
2 *8644:Y 0.000781985
3 *8647:A1 *8647:A2 2.7881e-05
4 *8647:A1 *8652:A_N 0.00033764
5 *8647:A1 *652:10 7.33703e-05
6 *8644:B *8647:A1 0.000385322
7 *8653:A2 *8647:A1 5.55258e-05
8 *9156:D *8647:A1 7.26475e-06
9 *291:38 *8647:A1 5.55258e-05
10 *291:50 *8647:A1 0.000120655
*RES
1 *8644:Y *8647:A1 17.835 
*END

*D_NET *313 0.00385218
*CONN
*I *8652:A_N I *D sky130_fd_sc_hd__and4bb_1
*I *8646:A1 I *D sky130_fd_sc_hd__o31a_1
*I *8648:A1 I *D sky130_fd_sc_hd__o31a_1
*I *8645:X O *D sky130_fd_sc_hd__or2_1
*CAP
1 *8652:A_N 0.00013823
2 *8646:A1 3.91204e-05
3 *8648:A1 0
4 *8645:X 0.000521763
5 *313:19 0.000244266
6 *313:8 0.000588679
7 *8652:A_N *8883:B2 0.000157325
8 *313:8 *8648:A2 5.43722e-05
9 *313:8 *8648:B1 4.00541e-06
10 *313:8 *662:53 4.60584e-05
11 *313:19 *8648:A2 1.16578e-05
12 *313:19 *8648:B1 4.66108e-05
13 *313:19 *8883:B2 0.00015356
14 *8607:C *313:8 0
15 *8642:A1 *8646:A1 8.23457e-05
16 *8642:A2 *8646:A1 0.00015896
17 *8647:A1 *8652:A_N 0.00033764
18 *8648:A3 *313:8 0.000576853
19 *8653:A2 *8652:A_N 0.000192125
20 *291:38 *8652:A_N 0.000145515
21 *293:42 *8652:A_N 4.21314e-05
22 *293:42 *313:19 0.000155234
23 *293:59 *8652:A_N 0.000113527
24 *311:10 *8646:A1 4.21973e-05
*RES
1 *8645:X *313:8 9.13 
2 *313:8 *8648:A1 1.6 
3 *313:8 *313:19 4.34 
4 *313:19 *8646:A1 5.085 
5 *313:19 *8652:A_N 8.7 
*END

*D_NET *314 0.000453745
*CONN
*I *8647:A2 I *D sky130_fd_sc_hd__o221a_1
*I *8646:X O *D sky130_fd_sc_hd__o31a_1
*CAP
1 *8647:A2 0.000110393
2 *8646:X 0.000110393
3 *8647:A2 *652:10 2.16389e-05
4 *8642:A2 *8647:A2 2.30292e-05
5 *8647:A1 *8647:A2 2.7881e-05
6 *9156:D *8647:A2 0.00016041
*RES
1 *8646:X *8647:A2 9.375 
*END

*D_NET *315 0.00133931
*CONN
*I *8649:B1 I *D sky130_fd_sc_hd__a21o_1
*I *8648:X O *D sky130_fd_sc_hd__o31a_1
*CAP
1 *8649:B1 0.000456883
2 *8648:X 0.000456883
3 *8649:B1 *8607:A_N 1.19928e-05
4 *8649:B1 *8648:B1 4.81931e-05
5 *8649:B1 *605:66 1.59999e-05
6 *8607:C *8649:B1 1.56428e-05
7 *8649:A1 *8649:B1 0.000293969
8 *8650:B1 *8649:B1 0
9 *283:14 *8649:B1 8.93839e-06
10 *285:25 *8649:B1 3.08098e-05
*RES
1 *8648:X *8649:B1 13.3575 
*END

*D_NET *316 0.000310222
*CONN
*I *8650:C1 I *D sky130_fd_sc_hd__o311a_1
*I *8649:X O *D sky130_fd_sc_hd__a21o_1
*CAP
1 *8650:C1 2.31107e-05
2 *8649:X 2.31107e-05
3 *8650:C1 *605:66 9.91257e-05
4 *285:25 *8650:C1 0.000164874
*RES
1 *8649:X *8650:C1 4.685 
*END

*D_NET *317 0.000370419
*CONN
*I *8653:B1 I *D sky130_fd_sc_hd__o221a_1
*I *8651:X O *D sky130_fd_sc_hd__o31a_1
*CAP
1 *8653:B1 0.00013527
2 *8651:X 0.00013527
3 *8653:B1 *8653:A1 4.12014e-05
4 *8653:B1 *8653:B2 8.7152e-06
5 *8653:B1 *609:58 4.99619e-05
*RES
1 *8651:X *8653:B1 9.285 
*END

*D_NET *318 0.00134477
*CONN
*I *8653:B2 I *D sky130_fd_sc_hd__o221a_1
*I *8652:X O *D sky130_fd_sc_hd__and4bb_1
*CAP
1 *8653:B2 0.00046706
2 *8652:X 0.00046706
3 *8653:B2 *8644:A 0.000148389
4 *8653:B2 *8653:A1 4.55864e-06
5 *8653:B2 *714:116 1.43729e-05
6 *8652:C *8653:B2 0.000124007
7 *8652:D *8653:B2 8.18626e-05
8 *8653:A2 *8653:B2 2.03356e-05
9 *8653:B1 *8653:B2 8.7152e-06
10 *8653:C1 *8653:B2 8.41015e-06
*RES
1 *8652:X *8653:B2 13.2 
*END

*D_NET *319 0.00764105
*CONN
*I *9002:A2 I *D sky130_fd_sc_hd__a21o_1
*I *9006:A2 I *D sky130_fd_sc_hd__a21o_1
*I *9004:A2 I *D sky130_fd_sc_hd__a21o_1
*I *9010:A2 I *D sky130_fd_sc_hd__a21o_1
*I *9008:A2 I *D sky130_fd_sc_hd__a21o_1
*I *9012:A2 I *D sky130_fd_sc_hd__a21o_1
*I *8656:A2 I *D sky130_fd_sc_hd__a21bo_1
*I *8654:Y O *D sky130_fd_sc_hd__nor2_2
*CAP
1 *9002:A2 4.15109e-05
2 *9006:A2 3.7937e-05
3 *9004:A2 0.000146684
4 *9010:A2 9.70796e-05
5 *9008:A2 0.000245845
6 *9012:A2 0.000453006
7 *8656:A2 0.000170211
8 *8654:Y 3.58358e-05
9 *319:46 0.000430902
10 *319:33 0.0010395
11 *319:27 0.000705831
12 *319:25 0.000233337
13 *319:23 0.000247919
14 *319:8 0.000277681
15 *8656:A2 *8654:A 2.4997e-05
16 *8656:A2 *8656:B1_N 2.75145e-05
17 *8656:A2 *8657:B 7.23602e-05
18 *8656:A2 *9002:A1 0.000126627
19 *8656:A2 *608:35 0
20 *9002:A2 *8630:A2 5.05437e-05
21 *9004:A2 *9007:B1 0.000112836
22 *9004:A2 *9185:A 8.40213e-05
23 *9004:A2 *612:42 0.000230435
24 *9004:A2 *614:56 2.0514e-05
25 *9004:A2 *646:33 2.8185e-05
26 *9008:A2 *8746:B1 1.73877e-05
27 *9008:A2 *8747:B1 6.55577e-05
28 *9008:A2 *9011:B1 0.000116151
29 *9008:A2 *648:25 9.15582e-05
30 *9008:A2 *650:18 0
31 *9008:A2 *712:25 0
32 *9010:A2 *8886:B1 0
33 *9010:A2 *9010:A1 4.66108e-05
34 *9010:A2 *9011:B1 4.66108e-05
35 *9010:A2 *9167:CLK 3.63661e-05
36 *9012:A2 *9009:A1 0.000418498
37 *9012:A2 *9012:A1 2.42599e-05
38 *319:8 *8608:B 4.66108e-05
39 *319:23 *8608:B 7.19937e-05
40 *319:23 *9002:A1 3.18137e-05
41 *319:25 *8608:B 9.60115e-05
42 *319:25 *608:35 8.09021e-06
43 *319:27 *9006:A1 4.44131e-05
44 *319:27 *608:35 4.04946e-05
45 *319:33 *8748:B1 7.8486e-05
46 *319:33 *8886:A1 0.000148632
47 *319:33 *9006:A1 3.82549e-05
48 *319:33 *9009:A1 7.40446e-05
49 *319:33 *608:35 5.25832e-05
50 *319:46 *9009:A1 0.000121094
51 *319:46 *648:25 1.52184e-05
52 *8608:A *9004:A2 0.000124102
53 *8608:A *9006:A2 2.75145e-05
54 *8610:A3 *9002:A2 0
55 *9002:B1 *9002:A2 0
56 *9002:B1 *319:25 0
57 *9009:A2 *9012:A2 0.000168027
58 *9010:B1 *9010:A2 4.82919e-05
59 *237:82 *9008:A2 0.000242409
60 *237:82 *319:46 7.12228e-06
61 *237:95 *319:33 0
62 *237:95 *319:46 0.000248254
63 *237:107 *9004:A2 5.27218e-05
64 *237:121 *319:25 0
65 *237:121 *319:27 0
66 *292:28 *9002:A2 5.05437e-05
67 *292:28 *319:23 0
*RES
1 *8654:Y *319:8 4.05 
2 *319:8 *8656:A2 7.155 
3 *319:8 *319:23 1.635 
4 *319:23 *319:25 2.4 
5 *319:25 *319:27 1.38 
6 *319:27 *319:33 11.15 
7 *319:33 *9012:A2 7.84 
8 *319:33 *319:46 5.165 
9 *319:46 *9008:A2 9.87 
10 *319:46 *9010:A2 5.445 
11 *319:27 *9004:A2 11.965 
12 *319:25 *9006:A2 4.41 
13 *319:23 *9002:A2 4.755 
*END

*D_NET *320 0.000515934
*CONN
*I *8656:B1_N I *D sky130_fd_sc_hd__a21bo_1
*I *8655:Y O *D sky130_fd_sc_hd__nand2_1
*CAP
1 *8656:B1_N 0.000217021
2 *8655:Y 0.000217021
3 *8656:B1_N *8656:A1 5.43769e-05
4 *8656:A2 *8656:B1_N 2.75145e-05
*RES
1 *8655:Y *8656:B1_N 6.41 
*END

*D_NET *321 0.00241299
*CONN
*I *8657:B I *D sky130_fd_sc_hd__and3_1
*I *8656:X O *D sky130_fd_sc_hd__a21bo_1
*CAP
1 *8657:B 0.000757077
2 *8656:X 0.000757077
3 *8657:B *8608:B 8.61123e-05
4 *8657:B *8654:A 9.98831e-05
5 *8657:B *8658:A 0.000538538
6 *8657:B *644:90 2.4981e-05
7 *8656:A2 *8657:B 7.23602e-05
8 *292:28 *8657:B 6.57053e-05
9 *292:38 *8657:B 1.12578e-05
*RES
1 *8656:X *8657:B 17.835 
*END

*D_NET *322 0.00234909
*CONN
*I *8658:A I *D sky130_fd_sc_hd__clkbuf_1
*I *8657:X O *D sky130_fd_sc_hd__and3_1
*CAP
1 *8658:A 0.000461427
2 *8657:X 0.000461427
3 *8658:A *8608:B 4.65641e-05
4 *8658:A *9002:A1 0
5 *8658:A *9005:A1 0.000201503
6 *8658:A *9005:B1 3.23663e-05
7 *8658:A *9160:RESET_B 8.6099e-05
8 *8658:A *610:21 9.14049e-05
9 *8658:A *735:562 8.52172e-05
10 *8658:A *735:707 0.000222813
11 *8657:B *8658:A 0.000538538
12 *9158:D *8658:A 0
13 *292:38 *8658:A 0.000121733
*RES
1 *8657:X *8658:A 19.89 
*END

*D_NET *323 0.00142819
*CONN
*I *8660:A I *D sky130_fd_sc_hd__clkbuf_1
*I *8659:X O *D sky130_fd_sc_hd__and2_1
*CAP
1 *8660:A 0.000364906
2 *8659:X 0.000364906
3 *8660:A *8659:B 1.26626e-05
4 *8660:A *8662:A 0
5 *8660:A *9190:A 0.000445846
6 *8660:A *735:1112 0
7 *8660:A *735:1126 0
8 *8660:A *747:34 0.000137454
9 *9165:D *8660:A 0.000102411
*RES
1 *8659:X *8660:A 15.705 
*END

*D_NET *324 0.00101434
*CONN
*I *8662:A I *D sky130_fd_sc_hd__clkbuf_1
*I *8661:X O *D sky130_fd_sc_hd__and2_1
*CAP
1 *8662:A 0.000414747
2 *8661:X 0.000414747
3 *8662:A *8659:B 6.47594e-05
4 *8662:A *8741:A2 5.72004e-05
5 *8660:A *8662:A 0
6 *8661:A *8662:A 0
7 *9164:D *8662:A 6.28843e-05
8 *9165:D *8662:A 0
9 *234:135 *8662:A 0
*RES
1 *8661:X *8662:A 14.955 
*END

*D_NET *325 0.000971405
*CONN
*I *8664:A I *D sky130_fd_sc_hd__clkbuf_1
*I *8663:X O *D sky130_fd_sc_hd__and2_1
*CAP
1 *8664:A 0.000418621
2 *8663:X 0.000418621
3 *8664:A *9085:D 3.68596e-05
4 *8664:A *9161:CLK 6.0011e-05
5 *8664:A *9161:RESET_B 0
6 *9161:D *8664:A 3.72916e-05
*RES
1 *8663:X *8664:A 13.635 
*END

*D_NET *326 0.000787002
*CONN
*I *8666:A I *D sky130_fd_sc_hd__clkbuf_1
*I *8665:X O *D sky130_fd_sc_hd__and2_1
*CAP
1 *8666:A 0.000202404
2 *8665:X 0.000202404
3 *8666:A *8665:B 3.00381e-05
4 *9162:D *8666:A 0.000352156
*RES
1 *8665:X *8666:A 7.715 
*END

*D_NET *327 0.000796966
*CONN
*I *8670:A2 I *D sky130_fd_sc_hd__a221o_1
*I *8667:Y O *D sky130_fd_sc_hd__nor2_1
*CAP
1 *8670:A2 0.000117989
2 *8667:Y 0.000117989
3 *8670:A2 *8670:A1 5.39961e-05
4 *8670:A2 *8670:C1 0.000195346
5 *8670:A2 *673:31 8.8266e-05
6 *8670:A2 *673:44 0.000164171
7 *8670:A2 *673:65 6.8725e-06
8 *8670:A2 *742:20 5.23362e-05
*RES
1 *8667:Y *8670:A2 10.8038 
*END

*D_NET *328 0.000534788
*CONN
*I *8670:B1 I *D sky130_fd_sc_hd__a221o_1
*I *8668:X O *D sky130_fd_sc_hd__mux2_1
*CAP
1 *8670:B1 0.000148801
2 *8668:X 0.000148801
3 *8670:B1 *8529:C1 5.05437e-05
4 *8670:B1 *8670:A1 0.00015995
5 *8670:B1 *8670:C1 2.66935e-05
6 *8670:B1 *673:31 0
*RES
1 *8668:X *8670:B1 9.885 
*END

*D_NET *329 0.00082943
*CONN
*I *8670:C1 I *D sky130_fd_sc_hd__a221o_1
*I *8669:X O *D sky130_fd_sc_hd__o21a_1
*CAP
1 *8670:C1 0.000288241
2 *8669:X 0.000288241
3 *8670:C1 *8529:C1 0
4 *8670:C1 *673:65 3.09083e-05
5 *8670:A2 *8670:C1 0.000195346
6 *8670:B1 *8670:C1 2.66935e-05
*RES
1 *8669:X *8670:C1 10.935 
*END

*D_NET *330 0.00134589
*CONN
*I *8671:A I *D sky130_fd_sc_hd__and2_1
*I *8670:X O *D sky130_fd_sc_hd__a221o_1
*CAP
1 *8671:A 0.000305165
2 *8670:X 0.000305165
3 *8671:A *621:34 6.28843e-05
4 *8671:A *621:43 7.26629e-05
5 *8671:A *742:20 0.000247567
6 *189:86 *8671:A 0.000352447
*RES
1 *8670:X *8671:A 14.385 
*END

*D_NET *331 0.00268994
*CONN
*I *8672:A I *D sky130_fd_sc_hd__clkbuf_1
*I *8671:X O *D sky130_fd_sc_hd__and2_1
*CAP
1 *8672:A 0.000809261
2 *8671:X 0.000809261
3 *8672:A *8523:B1 0
4 *8672:A *672:27 3.84331e-05
5 *8672:A *704:79 0.00010963
6 *8502:B *8672:A 7.19352e-05
7 *8503:A1 *8672:A 5.87883e-05
8 *8503:A2 *8672:A 4.66742e-05
9 *8503:B1 *8672:A 2.75145e-05
10 *8521:B *8672:A 9.36526e-05
11 *189:84 *8672:A 0.000415929
12 *195:39 *8672:A 0.000113247
13 *201:12 *8672:A 8.69301e-07
14 *216:10 *8672:A 9.47454e-05
*RES
1 *8671:X *8672:A 23.25 
*END

*D_NET *332 0.000465383
*CONN
*I *8674:D1 I *D sky130_fd_sc_hd__o2111a_1
*I *8673:X O *D sky130_fd_sc_hd__or4_1
*CAP
1 *8674:D1 5.14056e-05
2 *8673:X 5.14056e-05
3 *8674:D1 *9175:RESET_B 0.000119898
4 *8539:A1 *8674:D1 0.000139245
5 *8545:A1 *8674:D1 8.53113e-06
6 *8545:A2 *8674:D1 4.66108e-05
7 *8545:B1 *8674:D1 4.82863e-05
*RES
1 *8673:X *8674:D1 9.285 
*END

*D_NET *333 0.00228234
*CONN
*I *8677:A I *D sky130_fd_sc_hd__clkbuf_1
*I *8676:X O *D sky130_fd_sc_hd__and3_1
*CAP
1 *8677:A 0.000637043
2 *8676:X 0.000637043
3 *8677:A *9092:CLK 7.81632e-05
4 *8677:A *581:57 0
5 *8677:A *717:10 4.20983e-05
6 *8677:A *717:21 9.60047e-05
7 *8677:A *717:32 7.44375e-05
8 *8677:A *717:45 0.000109449
9 *8677:A *717:53 0.000197264
10 *8677:A *717:98 1.15688e-05
11 *8676:C *8677:A 4.82863e-05
12 *9092:D *8677:A 2.75145e-05
13 *9177:D *8677:A 0.000108478
14 *189:74 *8677:A 8.22234e-06
15 *239:20 *8677:A 0.000206767
*RES
1 *8676:X *8677:A 19.575 
*END

*D_NET *334 0.00337467
*CONN
*I *8685:A1 I *D sky130_fd_sc_hd__a211oi_1
*I *8678:Y O *D sky130_fd_sc_hd__inv_2
*CAP
1 *8685:A1 0.000638231
2 *8678:Y 0.000638231
3 *8685:A1 *8558:A 0.000131881
4 *8685:A1 *8697:A2 0.000120655
5 *8685:A1 *8697:A3 2.16833e-05
6 *8685:A1 *8719:A_N 0.000311282
7 *8685:A1 *8719:B 9.78e-05
8 *8685:A1 *8725:B 0.000579352
9 *8685:A1 *8725:D 0.000181999
10 *8685:A1 *8728:A1 0.000131881
11 *8685:A1 *8731:B 0.000225285
12 *8685:A1 *338:14 2.23611e-05
13 *8685:A1 *338:50 4.55864e-06
14 *8685:A1 *338:59 7.27399e-05
15 *8685:A1 *340:86 5.64836e-05
16 *8685:A1 *761:28 0.000140247
*RES
1 *8678:Y *8685:A1 26.53 
*END

*D_NET *335 0.00836964
*CONN
*I *8899:A I *D sky130_fd_sc_hd__or3b_1
*I *8687:A I *D sky130_fd_sc_hd__nor3b_4
*I *8710:C I *D sky130_fd_sc_hd__and4b_1
*I *8920:A I *D sky130_fd_sc_hd__or4b_1
*I *8694:A I *D sky130_fd_sc_hd__or3_1
*I *8706:A I *D sky130_fd_sc_hd__nor3_2
*I *8715:C I *D sky130_fd_sc_hd__and4b_1
*I *8704:C I *D sky130_fd_sc_hd__and4b_1
*I *8680:A I *D sky130_fd_sc_hd__buf_2
*I *8698:C I *D sky130_fd_sc_hd__and4b_1
*I *8679:X O *D sky130_fd_sc_hd__buf_2
*CAP
1 *8899:A 1.44309e-05
2 *8687:A 0.000127798
3 *8710:C 0
4 *8920:A 8.34987e-05
5 *8694:A 0
6 *8706:A 0
7 *8715:C 0
8 *8704:C 0
9 *8680:A 6.47829e-05
10 *8698:C 0.00021176
11 *8679:X 0
12 *335:93 0.000180101
13 *335:82 0.000163968
14 *335:73 0.000156375
15 *335:67 0.000408936
16 *335:57 0.000463519
17 *335:55 0.000388648
18 *335:34 0.000727349
19 *335:17 0.000490105
20 *335:4 0.000268154
21 *8680:A *8722:A3 0.000136877
22 *8680:A *337:25 3.62086e-05
23 *8687:A *8717:A2 8.69417e-06
24 *8687:A *337:62 0
25 *8687:A *344:60 0.000143871
26 *8698:C *8679:A 1.41165e-05
27 *8698:C *8698:A_N 0
28 *8698:C *8698:D 8.6872e-05
29 *8899:A *344:60 6.5132e-06
30 *8899:A *347:31 2.67222e-05
31 *8920:A *8717:B1 2.75145e-05
32 *8920:A *8721:B1 7.00066e-05
33 *8920:A *8721:C1 4.82863e-05
34 *8920:A *8920:B 0.000126679
35 *8920:A *8920:D_N 3.50033e-05
36 *8920:A *337:103 7.23533e-05
37 *335:17 *8679:A 3.39426e-05
38 *335:34 *8704:D 0.000187629
39 *335:34 *8705:C1 0.000111701
40 *335:34 *8722:A3 0.000737777
41 *335:34 *8903:B 9.62877e-05
42 *335:34 *337:25 1.23673e-05
43 *335:34 *337:38 0.000120892
44 *335:34 *347:8 0.00013079
45 *335:34 *347:31 0.000331252
46 *335:55 *8899:C_N 2.94433e-05
47 *335:55 *8904:A1 4.27146e-05
48 *335:55 *8954:A3 0.000113797
49 *335:55 *337:49 0
50 *335:55 *339:47 0.000169542
51 *335:55 *344:60 8.53113e-06
52 *335:55 *531:18 9.82856e-06
53 *335:57 *347:31 9.13949e-06
54 *335:67 *8710:D 8.53113e-06
55 *335:67 *8899:C_N 4.92062e-05
56 *335:67 *339:51 5.23362e-05
57 *335:67 *339:55 0.000225092
58 *335:67 *339:73 2.07184e-05
59 *335:67 *347:31 0.000268739
60 *335:67 *347:156 2.46007e-05
61 *335:73 *8715:B 0.000215999
62 *335:73 *8908:B 0.000139523
63 *335:73 *347:156 2.82643e-05
64 *335:82 *8715:D 9.89278e-05
65 *335:82 *345:54 0.000158072
66 *335:93 *8710:D 2.73058e-05
67 *335:93 *8715:D 8.65905e-05
68 *335:93 *8920:B 9.50342e-06
69 *335:93 *337:103 0.00012559
70 *335:93 *345:54 4.60584e-05
71 *335:93 *347:156 4.98014e-05
72 *8954:B1 *335:55 0
73 *275:16 *8680:A 0
*RES
1 *8679:X *335:4 1.6 
2 *335:4 *8698:C 4.39 
3 *335:4 *335:17 2.795 
4 *335:17 *8680:A 5.235 
5 *335:17 *335:34 14 
6 *335:34 *8704:C 1.6 
7 *335:34 *335:55 11.0837 
8 *335:55 *335:57 0.36 
9 *335:57 *335:67 10.255 
10 *335:67 *335:73 6.655 
11 *335:73 *8715:C 1.6 
12 *335:73 *335:82 1.845 
13 *335:82 *8706:A 1.6 
14 *335:82 *335:93 4.685 
15 *335:93 *8694:A 3.6 
16 *335:93 *8920:A 6.45 
17 *335:67 *8710:C 1.6 
18 *335:57 *8687:A 7.745 
19 *335:55 *8899:A 2.05 
*END

*D_NET *336 0.00676135
*CONN
*I *8725:C I *D sky130_fd_sc_hd__and4b_1
*I *8712:A I *D sky130_fd_sc_hd__or4_1
*I *8731:C I *D sky130_fd_sc_hd__and4b_1
*I *8685:A2 I *D sky130_fd_sc_hd__a211oi_1
*I *8686:C I *D sky130_fd_sc_hd__and4b_1
*I *8701:A2 I *D sky130_fd_sc_hd__a211oi_1
*I *8724:A2 I *D sky130_fd_sc_hd__a211oi_1
*I *8730:A2 I *D sky130_fd_sc_hd__a211oi_1
*I *8718:A2 I *D sky130_fd_sc_hd__a211oi_1
*I *8719:C I *D sky130_fd_sc_hd__and4b_1
*I *8680:X O *D sky130_fd_sc_hd__buf_2
*CAP
1 *8725:C 0
2 *8712:A 0.000132761
3 *8731:C 0
4 *8685:A2 3.78749e-05
5 *8686:C 0
6 *8701:A2 0.000284669
7 *8724:A2 0.000176465
8 *8730:A2 0
9 *8718:A2 9.48173e-05
10 *8719:C 0
11 *8680:X 0.000241946
12 *336:97 0.000304251
13 *336:80 0.00050666
14 *336:58 0.00033067
15 *336:56 0.000343296
16 *336:36 0.00019598
17 *336:27 0.000217545
18 *336:23 0.000154924
19 *336:19 0.000265704
20 *336:12 0.000455938
21 *8685:A2 *8697:A1 0.000123225
22 *8685:A2 *8697:B1 4.99619e-05
23 *8685:A2 *8697:B2 2.65814e-06
24 *8701:A2 *8686:B 3.27355e-05
25 *8701:A2 *8686:D 4.50491e-05
26 *8701:A2 *8701:C1 0.00012657
27 *8701:A2 *340:43 4.35348e-05
28 *8701:A2 *724:8 0
29 *8712:A *8712:D 0.000120159
30 *8712:A *8731:D 7.52099e-05
31 *8712:A *8734:A2 4.99619e-05
32 *8712:A *340:86 4.48671e-05
33 *8718:A2 *338:24 0.000126054
34 *8718:A2 *338:31 7.38676e-05
35 *8724:A2 *338:31 0.000100916
36 *8724:A2 *338:39 0.000126076
37 *336:12 *8702:C1 0.000346763
38 *336:12 *9084:D 0
39 *336:12 *339:10 4.66108e-05
40 *336:12 *340:10 0
41 *336:12 *340:12 0
42 *336:12 *760:24 0
43 *336:19 *8725:D 0.000247553
44 *336:19 *338:106 5.87007e-05
45 *336:23 *8558:A 2.84224e-05
46 *336:23 *8697:A2 7.23533e-05
47 *336:23 *8722:A1 6.65203e-05
48 *336:27 *8558:A 7.97165e-05
49 *336:27 *8722:A1 6.10014e-05
50 *336:27 *338:24 0
51 *336:27 *340:18 0
52 *336:36 *338:31 4.82919e-05
53 *336:58 *8686:D 3.28313e-05
54 *336:80 *8734:A1 0.000160974
55 *336:80 *761:28 6.08204e-05
56 *336:97 *8697:B1 0.000223128
57 *336:97 *8722:B1 4.66108e-05
58 *336:97 *8734:A1 0.000255609
59 *336:97 *340:86 1.46828e-05
60 *336:97 *352:107 2.07184e-05
61 *336:97 *761:28 5.69898e-06
*RES
1 *8680:X *336:12 10.235 
2 *336:12 *8719:C 1.6 
3 *336:12 *336:19 2.865 
4 *336:19 *336:23 3.635 
5 *336:23 *336:27 4.4 
6 *336:27 *8718:A2 3.43 
7 *336:27 *336:36 0.45 
8 *336:36 *8730:A2 1.6 
9 *336:36 *8724:A2 4.6 
10 *336:23 *336:56 2 
11 *336:56 *336:58 0.795 
12 *336:58 *8701:A2 6.475 
13 *336:58 *8686:C 1.6 
14 *336:56 *336:80 7.1 
15 *336:80 *8685:A2 4.74 
16 *336:80 *336:97 6.32 
17 *336:97 *8731:C 1.6 
18 *336:97 *8712:A 4.48 
19 *336:19 *8725:C 1.6 
*END

*D_NET *337 0.00931271
*CONN
*I *8706:B I *D sky130_fd_sc_hd__nor3_2
*I *8694:B I *D sky130_fd_sc_hd__or3_1
*I *8920:D_N I *D sky130_fd_sc_hd__or4b_1
*I *8710:D I *D sky130_fd_sc_hd__and4b_1
*I *8715:D I *D sky130_fd_sc_hd__and4b_1
*I *8687:B I *D sky130_fd_sc_hd__nor3b_4
*I *8899:B I *D sky130_fd_sc_hd__or3b_1
*I *8704:D I *D sky130_fd_sc_hd__and4b_1
*I *8698:D I *D sky130_fd_sc_hd__and4b_1
*I *8682:A I *D sky130_fd_sc_hd__buf_2
*I *8681:X O *D sky130_fd_sc_hd__buf_2
*CAP
1 *8706:B 1.603e-05
2 *8694:B 0
3 *8920:D_N 0.000140743
4 *8710:D 0.000169317
5 *8715:D 8.22516e-05
6 *8687:B 0
7 *8899:B 6.41871e-05
8 *8704:D 3.01198e-05
9 *8698:D 4.60851e-05
10 *8682:A 2.80589e-05
11 *8681:X 0.000205801
12 *337:103 0.000280329
13 *337:86 0.000308903
14 *337:73 9.26474e-05
15 *337:71 0.000153358
16 *337:62 0.000208223
17 *337:49 0.000506995
18 *337:38 0.000818676
19 *337:25 0.000578854
20 *337:12 0.000339589
21 *8682:A *339:10 4.6483e-05
22 *8682:A *642:33 2.05665e-05
23 *8698:D *8679:A 4.77719e-05
24 *8698:D *8699:C1 1.52352e-05
25 *8704:D *8903:B 0.000187629
26 *8706:B *8687:C_N 9.03508e-06
27 *8710:D *339:55 0.000225947
28 *8710:D *339:73 7.62616e-05
29 *8710:D *339:99 2.0458e-05
30 *8710:D *347:31 7.40446e-05
31 *8710:D *347:49 0.000150226
32 *8710:D *347:156 1.52184e-05
33 *8715:D *8716:C1 0.00015896
34 *8715:D *345:54 1.34503e-05
35 *8920:D_N *8717:B1 6.4925e-05
36 *8920:D_N *8721:C1 0.000158066
37 *8920:D_N *8908:B 3.98952e-05
38 *8920:D_N *8920:B 7.06865e-05
39 *8920:D_N *8920:C 3.09164e-05
40 *8920:D_N *515:30 4.82863e-05
41 *337:12 *8683:A 4.82863e-05
42 *337:12 *339:10 0.000177645
43 *337:12 *642:33 0.000425498
44 *337:38 *8704:B 5.35219e-05
45 *337:38 *347:8 0.000130171
46 *337:38 *347:31 0.000312673
47 *337:49 *8705:B2 3.16057e-06
48 *337:49 *8904:A1 0
49 *337:49 *339:47 0
50 *337:49 *347:31 0.000568376
51 *337:62 *8717:A2 2.85364e-05
52 *337:62 *8722:A3 4.45582e-05
53 *337:62 *8727:C1 3.85204e-05
54 *337:62 *347:31 8.30853e-06
55 *337:71 *8687:C_N 0.000119762
56 *337:71 *8709:C1 2.49909e-05
57 *337:71 *8716:C1 0.000157172
58 *337:71 *345:38 0.000235238
59 *337:71 *345:54 9.80032e-06
60 *337:71 *360:36 0.000128712
61 *337:73 *8716:C1 4.82919e-05
62 *337:73 *345:54 1.47347e-05
63 *337:103 *8721:B1 7.43897e-05
64 *337:103 *339:99 4.16869e-05
65 *337:103 *344:66 4.01019e-05
66 *337:103 *515:30 7.14699e-05
67 *8680:A *337:25 3.62086e-05
68 *8687:A *337:62 0
69 *8698:C *8698:D 8.6872e-05
70 *8920:A *8920:D_N 3.50033e-05
71 *8920:A *337:103 7.23533e-05
72 *8954:B1 *337:49 6.46014e-05
73 *275:16 *337:25 0
74 *275:16 *337:38 0
75 *335:34 *8704:D 0.000187629
76 *335:34 *337:25 1.23673e-05
77 *335:34 *337:38 0.000120892
78 *335:55 *337:49 0
79 *335:67 *8710:D 8.53113e-06
80 *335:82 *8715:D 9.89278e-05
81 *335:93 *8710:D 2.73058e-05
82 *335:93 *8715:D 8.65905e-05
83 *335:93 *337:103 0.00012559
*RES
1 *8681:X *337:12 7.27 
2 *337:12 *8682:A 2.3875 
3 *337:12 *337:25 3.89 
4 *337:25 *8698:D 4.99125 
5 *337:25 *337:38 8.715 
6 *337:38 *8704:D 5.33625 
7 *337:38 *337:49 6.99 
8 *337:49 *8899:B 4.395 
9 *337:49 *337:62 3.635 
10 *337:62 *8687:B 1.6 
11 *337:62 *337:71 4.26 
12 *337:71 *337:73 0.45 
13 *337:73 *8715:D 4.14625 
14 *337:73 *337:86 2 
15 *337:86 *8710:D 8.08125 
16 *337:86 *337:103 5.195 
17 *337:103 *8920:D_N 9.17 
18 *337:103 *8694:B 1.6 
19 *337:71 *8706:B 1.96 
*END

*D_NET *338 0.00629609
*CONN
*I *8725:D I *D sky130_fd_sc_hd__and4b_1
*I *8719:D I *D sky130_fd_sc_hd__and4b_1
*I *8686:D I *D sky130_fd_sc_hd__and4b_1
*I *8701:B1 I *D sky130_fd_sc_hd__a211oi_1
*I *8730:B1 I *D sky130_fd_sc_hd__a211oi_1
*I *8731:D I *D sky130_fd_sc_hd__and4b_1
*I *8712:B I *D sky130_fd_sc_hd__or4_1
*I *8685:B1 I *D sky130_fd_sc_hd__a211oi_1
*I *8724:B1 I *D sky130_fd_sc_hd__a211oi_1
*I *8718:B1 I *D sky130_fd_sc_hd__a211oi_1
*I *8682:X O *D sky130_fd_sc_hd__buf_2
*CAP
1 *8725:D 7.98153e-05
2 *8719:D 0
3 *8686:D 0.00011706
4 *8701:B1 0
5 *8730:B1 0
6 *8731:D 7.73333e-05
7 *8712:B 0
8 *8685:B1 0
9 *8724:B1 0
10 *8718:B1 0
11 *8682:X 0.000290971
12 *338:106 0.000117451
13 *338:88 0.00011706
14 *338:59 0.00012167
15 *338:50 0.000360945
16 *338:39 0.000408324
17 *338:31 0.000135965
18 *338:24 0.000292991
19 *338:18 0.000332613
20 *338:14 0.000412479
21 *8686:D *8686:B 0.000198845
22 *8686:D *8701:C1 0.000113821
23 *8686:D *8702:C1 4.99619e-05
24 *8686:D *340:43 8.65905e-05
25 *8725:D *8719:A_N 0.000114486
26 *8731:D *8685:C1 4.90267e-05
27 *8731:D *340:86 7.52099e-05
28 *8731:D *761:28 3.32412e-05
29 *338:14 *8702:C1 0
30 *338:14 *8719:A_N 8.65905e-05
31 *338:14 *8719:B 0.00012438
32 *338:14 *8722:A3 3.17252e-05
33 *338:18 *8702:C1 0.000112825
34 *338:18 *340:12 0
35 *338:24 *8701:A1 0.000112198
36 *338:24 *340:18 8.77498e-05
37 *338:24 *742:73 8.53113e-06
38 *338:31 *340:18 4.89295e-05
39 *338:31 *340:25 0.000185604
40 *338:39 *8724:C1 0.000178308
41 *338:39 *8730:C1 1.92584e-05
42 *338:39 *340:25 2.20014e-05
43 *338:50 *8724:C1 4.99619e-05
44 *338:50 *759:18 0
45 *338:50 *761:28 0.000139865
46 *338:59 *8685:C1 0.000120186
47 *338:59 *759:18 0
48 *338:106 *8719:A_N 0.000130171
49 *338:106 *8719:B 3.57349e-05
50 *8685:A1 *8725:D 0.000181999
51 *8685:A1 *338:14 2.23611e-05
52 *8685:A1 *338:50 4.55864e-06
53 *8685:A1 *338:59 7.27399e-05
54 *8701:A2 *8686:D 4.50491e-05
55 *8712:A *8731:D 7.52099e-05
56 *8718:A2 *338:24 0.000126054
57 *8718:A2 *338:31 7.38676e-05
58 *8724:A2 *338:31 0.000100916
59 *8724:A2 *338:39 0.000126076
60 *275:16 *338:14 0
61 *275:16 *338:18 0
62 *336:19 *8725:D 0.000247553
63 *336:19 *338:106 5.87007e-05
64 *336:27 *338:24 0
65 *336:36 *338:31 4.82919e-05
66 *336:58 *8686:D 3.28313e-05
*RES
1 *8682:X *338:14 10.775 
2 *338:14 *338:18 3.635 
3 *338:18 *338:24 7.265 
4 *338:24 *8718:B1 1.6 
5 *338:24 *338:31 2.175 
6 *338:31 *338:39 3 
7 *338:39 *8724:B1 1.6 
8 *338:39 *338:50 8.015 
9 *338:50 *8685:B1 3.6 
10 *338:50 *338:59 1.635 
11 *338:59 *8712:B 3.6 
12 *338:59 *8731:D 5.72625 
13 *338:31 *8730:B1 1.6 
14 *338:18 *338:88 2 
15 *338:88 *8701:B1 1.6 
16 *338:88 *8686:D 5.36875 
17 *338:14 *338:106 1.23375 
18 *338:106 *8719:D 1.6 
19 *338:106 *8725:D 4.465 
*END

*D_NET *339 0.00906339
*CONN
*I *8899:C_N I *D sky130_fd_sc_hd__or3b_1
*I *8694:C I *D sky130_fd_sc_hd__or3_1
*I *8920:B I *D sky130_fd_sc_hd__or4b_1
*I *8687:C_N I *D sky130_fd_sc_hd__nor3b_4
*I *8706:C I *D sky130_fd_sc_hd__nor3_2
*I *8710:A_N I *D sky130_fd_sc_hd__and4b_1
*I *8715:A_N I *D sky130_fd_sc_hd__and4b_1
*I *8704:A_N I *D sky130_fd_sc_hd__and4b_1
*I *8698:A_N I *D sky130_fd_sc_hd__and4b_1
*I *8684:A I *D sky130_fd_sc_hd__clkbuf_2
*I *8683:X O *D sky130_fd_sc_hd__buf_2
*CAP
1 *8899:C_N 7.99244e-05
2 *8694:C 0
3 *8920:B 6.3755e-05
4 *8687:C_N 5.07679e-05
5 *8706:C 0
6 *8710:A_N 0
7 *8715:A_N 8.84801e-05
8 *8704:A_N 4.05263e-05
9 *8698:A_N 7.08273e-05
10 *8684:A 0.000257955
11 *8683:X 0.000340357
12 *339:99 0.000237957
13 *339:75 5.07679e-05
14 *339:73 0.000269336
15 *339:55 0.000220856
16 *339:51 0.000308593
17 *339:47 0.000357828
18 *339:36 0.000594335
19 *339:23 0.00050642
20 *339:10 0.000676916
21 *8684:A *8698:B 9.20976e-05
22 *8684:A *8934:B2 3.09164e-05
23 *8684:A *704:110 0.000169903
24 *8684:A *742:58 8.20792e-05
25 *8687:C_N *8707:C1 1.12578e-05
26 *8687:C_N *345:54 2.49909e-05
27 *8687:C_N *360:6 4.87465e-06
28 *8687:C_N *360:36 4.82919e-05
29 *8698:A_N *8698:B 4.66108e-05
30 *8698:A_N *524:12 1.47256e-05
31 *8704:A_N *8903:B 8.40213e-05
32 *8715:A_N *8715:B 5.64757e-05
33 *8715:A_N *8922:C 0.000173853
34 *8920:B *8908:B 0
35 *8920:B *347:156 4.43871e-06
36 *339:10 *8683:A 4.99619e-05
37 *339:10 *642:33 0.000106861
38 *339:23 *8698:B 0.000175901
39 *339:36 *8698:B 2.07184e-05
40 *339:36 *8702:C1 8.72912e-06
41 *339:36 *8704:B 0.000148994
42 *339:36 *8932:D 0.00032668
43 *339:36 *524:12 0.000310429
44 *339:47 *8704:B 4.43871e-06
45 *339:47 *8932:D 0.00021755
46 *339:47 *8954:A3 0.000115464
47 *339:47 *502:85 0.000204463
48 *339:51 *8954:A3 1.82476e-05
49 *339:55 *8710:B 7.35729e-05
50 *339:55 *347:31 1.46744e-05
51 *339:55 *347:49 0.000111158
52 *339:73 *8954:A3 4.92096e-05
53 *339:73 *344:60 0
54 *339:73 *345:54 2.85364e-05
55 *339:99 *8713:A2 8.75256e-05
56 *339:99 *8716:B1 0
57 *339:99 *344:66 0.000128287
58 *339:99 *345:54 0.000132026
59 *8682:A *339:10 4.6483e-05
60 *8698:C *8698:A_N 0
61 *8706:B *8687:C_N 9.03508e-06
62 *8710:D *339:55 0.000225947
63 *8710:D *339:73 7.62616e-05
64 *8710:D *339:99 2.0458e-05
65 *8920:A *8920:B 0.000126679
66 *8920:D_N *8920:B 7.06865e-05
67 *275:16 *8684:A 1.64078e-05
68 *275:16 *339:23 0.000101317
69 *275:16 *339:36 3.50033e-05
70 *335:55 *8899:C_N 2.94433e-05
71 *335:55 *339:47 0.000169542
72 *335:67 *8899:C_N 4.92062e-05
73 *335:67 *339:51 5.23362e-05
74 *335:67 *339:55 0.000225092
75 *335:67 *339:73 2.07184e-05
76 *335:93 *8920:B 9.50342e-06
77 *336:12 *339:10 4.66108e-05
78 *337:12 *339:10 0.000177645
79 *337:49 *339:47 0
80 *337:71 *8687:C_N 0.000119762
81 *337:103 *339:99 4.16869e-05
*RES
1 *8683:X *339:10 9.585 
2 *339:10 *8684:A 8.535 
3 *339:10 *339:23 2.145 
4 *339:23 *8698:A_N 4.755 
5 *339:23 *339:36 8.52 
6 *339:36 *8704:A_N 4.395 
7 *339:36 *339:47 5.715 
8 *339:47 *339:51 1.41 
9 *339:51 *339:55 6.59 
10 *339:55 *8715:A_N 7.745 
11 *339:55 *8710:A_N 1.6 
12 *339:51 *339:73 2.145 
13 *339:73 *339:75 2 
14 *339:75 *8706:C 1.6 
15 *339:75 *8687:C_N 3.1 
16 *339:73 *339:99 5.84 
17 *339:99 *8920:B 7.235 
18 *339:99 *8694:C 1.6 
19 *339:47 *8899:C_N 5.115 
*END

*D_NET *340 0.00564206
*CONN
*I *8712:C I *D sky130_fd_sc_hd__or4_1
*I *8685:C1 I *D sky130_fd_sc_hd__a211oi_1
*I *8731:A_N I *D sky130_fd_sc_hd__and4b_1
*I *8725:A_N I *D sky130_fd_sc_hd__and4b_1
*I *8719:A_N I *D sky130_fd_sc_hd__and4b_1
*I *8686:A_N I *D sky130_fd_sc_hd__and4b_1
*I *8701:C1 I *D sky130_fd_sc_hd__a211oi_1
*I *8724:C1 I *D sky130_fd_sc_hd__a211oi_1
*I *8730:C1 I *D sky130_fd_sc_hd__a211oi_1
*I *8718:C1 I *D sky130_fd_sc_hd__a211oi_1
*I *8684:X O *D sky130_fd_sc_hd__clkbuf_2
*CAP
1 *8712:C 0
2 *8685:C1 4.92279e-05
3 *8731:A_N 0
4 *8725:A_N 0
5 *8719:A_N 5.82046e-05
6 *8686:A_N 0
7 *8701:C1 3.39858e-05
8 *8724:C1 3.65471e-05
9 *8730:C1 1.63187e-05
10 *8718:C1 0
11 *8684:X 5.30232e-05
12 *340:86 0.000191266
13 *340:75 0.000303489
14 *340:59 5.82046e-05
15 *340:43 5.0152e-05
16 *340:25 0.00015005
17 *340:18 0.000255313
18 *340:12 0.000282184
19 *340:10 0.000210007
20 *340:6 0.000316593
21 *8685:C1 *759:18 6.73665e-05
22 *8724:C1 *8728:A1 0.000215492
23 *340:6 *8722:A3 0.000113247
24 *340:6 *704:110 0.000113247
25 *340:10 *760:24 0.000175686
26 *340:12 *8722:A1 4.85087e-05
27 *340:12 *760:24 5.79855e-05
28 *340:18 *8722:A1 0.000105018
29 *340:25 *8722:A1 6.69608e-06
30 *340:25 *8728:A1 1.14169e-05
31 *340:75 *8722:A3 8.63479e-05
32 *340:75 *8722:B1 8.30319e-05
33 *340:75 *8731:B 0.000160396
34 *340:75 *704:110 0.000136034
35 *340:86 *8712:D 4.66108e-05
36 *340:86 *8722:B1 0.000118081
37 *340:86 *8731:B 6.70134e-05
38 *8685:A1 *8719:A_N 0.000311282
39 *8685:A1 *340:86 5.64836e-05
40 *8686:D *8701:C1 0.000113821
41 *8686:D *340:43 8.65905e-05
42 *8701:A2 *8701:C1 0.00012657
43 *8701:A2 *340:43 4.35348e-05
44 *8712:A *340:86 4.48671e-05
45 *8725:D *8719:A_N 0.000114486
46 *8731:D *8685:C1 4.90267e-05
47 *8731:D *340:86 7.52099e-05
48 *336:12 *340:10 0
49 *336:12 *340:12 0
50 *336:27 *340:18 0
51 *336:97 *340:86 1.46828e-05
52 *338:14 *8719:A_N 8.65905e-05
53 *338:18 *340:12 0
54 *338:24 *340:18 8.77498e-05
55 *338:31 *340:18 4.89295e-05
56 *338:31 *340:25 0.000185604
57 *338:39 *8724:C1 0.000178308
58 *338:39 *8730:C1 1.92584e-05
59 *338:39 *340:25 2.20014e-05
60 *338:50 *8724:C1 4.99619e-05
61 *338:59 *8685:C1 0.000120186
62 *338:106 *8719:A_N 0.000130171
*RES
1 *8684:X *340:6 3.43 
2 *340:6 *340:10 4.145 
3 *340:10 *340:12 1.89 
4 *340:12 *340:18 5.285 
5 *340:18 *8718:C1 1.6 
6 *340:18 *340:25 2.175 
7 *340:25 *8730:C1 1.96 
8 *340:25 *8724:C1 3.775 
9 *340:12 *340:43 2.795 
10 *340:43 *8701:C1 3.1 
11 *340:43 *8686:A_N 1.6 
12 *340:10 *340:59 2 
13 *340:59 *8719:A_N 4.465 
14 *340:59 *8725:A_N 1.6 
15 *340:6 *340:75 4.26 
16 *340:75 *8731:A_N 1.6 
17 *340:75 *340:86 3.675 
18 *340:86 *8685:C1 7.49 
19 *340:86 *8712:C 1.6 
*END

*D_NET *341 0.000945408
*CONN
*I *8697:A1 I *D sky130_fd_sc_hd__o32a_1
*I *8685:Y O *D sky130_fd_sc_hd__a211oi_1
*CAP
1 *8697:A1 0.000394274
2 *8685:Y 0.000394274
3 *8697:A1 *8697:A2 2.11084e-05
4 *8697:A1 *8697:A3 1.03323e-05
5 *8697:A1 *8697:B2 2.19562e-06
6 *8685:A2 *8697:A1 0.000123225
*RES
1 *8685:Y *8697:A1 8.075 
*END

*D_NET *342 0.000799223
*CONN
*I *8697:A2 I *D sky130_fd_sc_hd__o32a_1
*I *8686:X O *D sky130_fd_sc_hd__and4b_1
*CAP
1 *8697:A2 0.000132307
2 *8686:X 0.000132307
3 *8697:A2 *8558:A 6.95735e-05
4 *8697:A2 *8697:A3 0.000232111
5 *8697:A2 *8722:A1 1.88081e-05
6 *8685:A1 *8697:A2 0.000120655
7 *8697:A1 *8697:A2 2.11084e-05
8 *336:23 *8697:A2 7.23533e-05
*RES
1 *8686:X *8697:A2 11.01 
*END

*D_NET *343 0.0073251
*CONN
*I *8709:A2 I *D sky130_fd_sc_hd__a221o_1
*I *8705:A2 I *D sky130_fd_sc_hd__a221o_1
*I *8904:A3 I *D sky130_fd_sc_hd__a31o_2
*I *8693:A2 I *D sky130_fd_sc_hd__a221o_1
*I *8699:A2 I *D sky130_fd_sc_hd__a221o_1
*I *8733:A2 I *D sky130_fd_sc_hd__a221o_1
*I *8727:A2 I *D sky130_fd_sc_hd__a221o_1
*I *8716:A2 I *D sky130_fd_sc_hd__a221o_1
*I *8721:A2 I *D sky130_fd_sc_hd__a221o_1
*I *8687:Y O *D sky130_fd_sc_hd__nor3b_4
*CAP
1 *8709:A2 2.68294e-05
2 *8705:A2 1.28612e-05
3 *8904:A3 0.000283388
4 *8693:A2 3.39835e-05
5 *8699:A2 0
6 *8733:A2 0.000166962
7 *8727:A2 4.47623e-05
8 *8716:A2 0
9 *8721:A2 0.00013629
10 *8687:Y 0
11 *343:63 0.000240855
12 *343:57 0.000318493
13 *343:55 0.000517265
14 *343:53 0.000199048
15 *343:47 0.000257598
16 *343:14 0.000428615
17 *343:10 0.000395579
18 *343:4 0.000126334
19 *8693:A2 *8733:B2 3.1835e-05
20 *8693:A2 *344:27 0.000102788
21 *8705:A2 *8705:A1 6.7053e-05
22 *8709:A2 *8709:A1 1.37395e-05
23 *8709:A2 *8709:C1 0
24 *8709:A2 *508:18 5.52834e-05
25 *8721:A2 *8713:A2 1.2818e-05
26 *8721:A2 *8716:A1 0.000173311
27 *8721:A2 *8717:A2 0.000172023
28 *8721:A2 *8717:B1 0.000138118
29 *8721:A2 *8721:A1 3.38641e-05
30 *8721:A2 *8721:C1 0
31 *8721:A2 *574:18 2.95899e-05
32 *8727:A2 *8713:A2 4.63498e-05
33 *8727:A2 *8727:B2 0
34 *8733:A2 *8699:A1 1.46744e-05
35 *8733:A2 *8699:B2 0
36 *8733:A2 *8702:B1 0
37 *8733:A2 *8703:B1 2.59134e-05
38 *8733:A2 *8703:B2 0.000397368
39 *8733:A2 *8733:A1 3.87339e-05
40 *8733:A2 *8733:B2 1.20741e-05
41 *8733:A2 *8733:C1 0.000191335
42 *8904:A3 *8904:A2 3.85117e-05
43 *8904:A3 *512:12 0.000123701
44 *343:10 *8728:A3 0.000154467
45 *343:10 *512:12 0.000156134
46 *343:14 *8713:A2 5.55896e-05
47 *343:14 *8716:B1 1.66528e-05
48 *343:14 *8727:B2 0.000122259
49 *343:47 *8709:A1 1.34594e-05
50 *343:47 *8709:B2 6.93523e-06
51 *343:47 *8709:C1 4.66108e-05
52 *343:47 *345:38 2.84348e-05
53 *343:47 *508:18 0.000232205
54 *343:53 *8705:A1 0.000116563
55 *343:53 *8713:B1 7.21296e-06
56 *343:53 *8728:A2 7.63883e-05
57 *343:53 *644:39 0.000167659
58 *343:55 *8713:B1 1.7396e-05
59 *343:55 *644:39 2.34423e-05
60 *343:57 *8699:A1 0.000199589
61 *343:57 *8713:B1 4.79668e-05
62 *343:57 *644:39 0.000235657
63 *343:57 *644:45 3.29364e-05
64 *343:63 *8697:A3 0.000117832
65 *343:63 *8699:A1 0.000100524
66 *343:63 *8713:B1 4.24292e-06
67 *343:63 *8733:C1 8.53113e-06
68 *343:63 *644:45 2.23407e-05
69 *275:63 *8705:A2 6.7053e-05
70 *275:63 *8904:A3 0.000339067
*RES
1 *8687:Y *343:4 1.6 
2 *343:4 *343:10 5.89 
3 *343:10 *343:14 3.80625 
4 *343:14 *8721:A2 9.54125 
5 *343:14 *8716:A2 1.6 
6 *343:10 *8727:A2 2.64625 
7 *343:4 *343:47 2.175 
8 *343:47 *343:53 6.125 
9 *343:53 *343:55 0.615 
10 *343:55 *343:57 5.97 
11 *343:57 *343:63 4.1675 
12 *343:63 *8733:A2 6.5875 
13 *343:63 *8699:A2 1.6 
14 *343:57 *8693:A2 4.5675 
15 *343:55 *8904:A3 9.39 
16 *343:53 *8705:A2 4.2225 
17 *343:47 *8709:A2 2.33875 
*END

*D_NET *344 0.0130356
*CONN
*I *8693:B1 I *D sky130_fd_sc_hd__a221o_1
*I *8702:B1 I *D sky130_fd_sc_hd__a221o_1
*I *8727:B1 I *D sky130_fd_sc_hd__a221o_1
*I *8721:B1 I *D sky130_fd_sc_hd__a221o_1
*I *8711:B1 I *D sky130_fd_sc_hd__a221o_1
*I *8714:B1 I *D sky130_fd_sc_hd__a22o_1
*I *8922:C I *D sky130_fd_sc_hd__and4_1
*I *8705:B1 I *D sky130_fd_sc_hd__a221o_1
*I *8733:B1 I *D sky130_fd_sc_hd__a221o_1
*I *8688:Y O *D sky130_fd_sc_hd__nor3b_4
*CAP
1 *8693:B1 0
2 *8702:B1 0.000343968
3 *8727:B1 0.00012701
4 *8721:B1 0.000242893
5 *8711:B1 2.08101e-05
6 *8714:B1 0.000290399
7 *8922:C 0.00048761
8 *8705:B1 2.27018e-05
9 *8733:B1 0
10 *8688:Y 0.000201332
11 *344:70 0.000843636
12 *344:66 0.000399974
13 *344:60 0.00129138
14 *344:46 0.00107425
15 *344:31 0.000514647
16 *344:27 0.00112837
17 *344:10 0.000706084
18 *8702:B1 *8693:B2 6.03947e-06
19 *8702:B1 *8699:B2 7.76509e-05
20 *8702:B1 *8699:C1 9.50342e-06
21 *8702:B1 *8702:A1 4.87439e-05
22 *8702:B1 *8702:A2 6.47505e-05
23 *8702:B1 *8702:B2 1.95092e-05
24 *8702:B1 *8703:B2 0.000232111
25 *8702:B1 *345:12 0
26 *8702:B1 *345:23 0
27 *8714:B1 *8547:C 7.03353e-05
28 *8714:B1 *8711:A1 2.0514e-05
29 *8714:B1 *8711:B2 7.06865e-05
30 *8714:B1 *8711:C1 2.13396e-05
31 *8714:B1 *8714:A1 7.00889e-06
32 *8714:B1 *8714:A2 2.46089e-05
33 *8714:B1 *8908:B 0
34 *8714:B1 *515:30 0.000119756
35 *8714:B1 *521:16 2.75229e-05
36 *8721:B1 *8695:A 8.15676e-05
37 *8721:B1 *8716:B2 0
38 *8721:B1 *8716:C1 0
39 *8721:B1 *8717:B1 2.96124e-05
40 *8721:B1 *8721:A1 3.26889e-05
41 *8721:B1 *8721:B2 5.76743e-05
42 *8721:B1 *8721:C1 1.48813e-05
43 *8721:B1 *8920:C 0
44 *8721:B1 *8921:A 4.43871e-06
45 *8727:B1 *8722:A3 6.5313e-05
46 *8727:B1 *508:8 9.47454e-05
47 *8727:B1 *508:54 0.000178526
48 *8727:B1 *512:12 0.000206128
49 *8922:C *8547:C 8.69851e-05
50 *8922:C *8711:C1 0.000240389
51 *8922:C *8715:B 0
52 *8922:C *8908:B 0
53 *8922:C *8924:B2 0.000114492
54 *8922:C *8935:A1 0.0001149
55 *8922:C *383:84 0.00019637
56 *344:10 *8697:B2 6.15084e-05
57 *344:10 *8703:B2 0.000261889
58 *344:10 *8733:B2 4.43871e-06
59 *344:10 *8734:A1 7.63204e-05
60 *344:10 *352:73 0
61 *344:10 *761:34 4.23245e-05
62 *344:27 *8697:B2 0.000120655
63 *344:27 *8733:B2 7.83575e-05
64 *344:27 *352:73 0
65 *344:31 *8693:A1 0.000174063
66 *344:31 *8705:B2 7.9642e-06
67 *344:31 *8705:C1 0.000162539
68 *344:31 *345:23 0.000214733
69 *344:46 *8705:B2 9.98943e-06
70 *344:46 *8728:A3 1.83756e-05
71 *344:46 *345:23 6.36578e-05
72 *344:46 *512:12 3.54684e-05
73 *344:60 *8716:B2 0
74 *344:60 *8716:C1 0.000104619
75 *344:60 *8717:A2 0
76 *344:60 *8900:A 2.49909e-05
77 *344:60 *8954:A3 9.23473e-05
78 *344:60 *345:54 0.000140503
79 *344:60 *347:31 3.17555e-05
80 *344:66 *8711:A1 3.00381e-05
81 *344:66 *8713:A2 2.59926e-05
82 *344:66 *8714:A2 1.85235e-05
83 *344:66 *347:156 7.42175e-05
84 *344:66 *515:30 9.27255e-06
85 *344:70 *8711:A1 3.57354e-05
86 *344:70 *8711:B2 6.03947e-06
87 *8687:A *344:60 0.000143871
88 *8693:A2 *344:27 0.000102788
89 *8715:A_N *8922:C 0.000173853
90 *8733:A2 *8702:B1 0
91 *8899:A *344:60 6.5132e-06
92 *8920:A *8721:B1 7.00066e-05
93 *236:85 *8714:B1 0.000135905
94 *275:31 *8702:B1 0.000143348
95 *275:31 *344:31 0
96 *275:63 *8705:B1 4.77757e-05
97 *335:55 *344:60 8.53113e-06
98 *337:103 *8721:B1 7.43897e-05
99 *337:103 *344:66 4.01019e-05
100 *339:73 *344:60 0
101 *339:99 *344:66 0.000128287
*RES
1 *8688:Y *344:10 7.725 
2 *344:10 *8733:B1 3.6 
3 *344:10 *344:27 8.78 
4 *344:27 *344:31 8.735 
5 *344:31 *8705:B1 4.05 
6 *344:31 *344:46 5.21 
7 *344:46 *344:60 12.2675 
8 *344:60 *344:66 6.3875 
9 *344:66 *344:70 2.795 
10 *344:70 *8922:C 13.695 
11 *344:70 *8714:B1 13 
12 *344:66 *8711:B1 1.96 
13 *344:60 *8721:B1 8.1375 
14 *344:46 *8727:B1 10.04 
15 *344:27 *8702:B1 12.665 
16 *344:27 *8693:B1 1.6 
*END

*D_NET *345 0.0181653
*CONN
*I *8716:B1 I *D sky130_fd_sc_hd__a221o_1
*I *8720:A2 I *D sky130_fd_sc_hd__a22o_1
*I *8692:A2 I *D sky130_fd_sc_hd__a22o_1
*I *8732:A2 I *D sky130_fd_sc_hd__a22o_1
*I *8726:A2 I *D sky130_fd_sc_hd__a22o_1
*I *8707:A2 I *D sky130_fd_sc_hd__a221o_1
*I *8709:B1 I *D sky130_fd_sc_hd__a221o_1
*I *8699:B1 I *D sky130_fd_sc_hd__a221o_1
*I *8689:X O *D sky130_fd_sc_hd__and3b_2
*CAP
1 *8716:B1 7.25208e-05
2 *8720:A2 0.000150402
3 *8692:A2 0.000420889
4 *8732:A2 2.93435e-05
5 *8726:A2 0
6 *8707:A2 0.000146545
7 *8709:B1 0
8 *8699:B1 0
9 *8689:X 0.00022096
10 *345:102 0.000855171
11 *345:98 0.000727005
12 *345:87 0.000656098
13 *345:54 0.00150397
14 *345:38 0.00150409
15 *345:23 0.000943765
16 *345:12 0.000606148
17 *8692:A2 *8692:A1 1.45517e-05
18 *8692:A2 *8692:B1 3.17326e-05
19 *8692:A2 *8693:C1 1.40402e-05
20 *8692:A2 *8732:B1 1.60203e-05
21 *8692:A2 *8970:A0 0.000116541
22 *8692:A2 *8971:B1 8.49205e-05
23 *8692:A2 *8983:A1 0
24 *8692:A2 *347:103 0.000170169
25 *8707:A2 *8707:A1 3.18332e-05
26 *8707:A2 *347:49 0.00010749
27 *8707:A2 *383:8 0.000100303
28 *8707:A2 *737:22 0.000120655
29 *8707:A2 *744:18 0.000194326
30 *8716:B1 *8713:A2 2.82889e-05
31 *8716:B1 *8716:B2 6.03947e-06
32 *8720:A2 *8720:B1 0.000285723
33 *8720:A2 *533:101 0.00025732
34 *8720:A2 *537:130 0.000101016
35 *8732:A2 *8732:B1 0.000121437
36 *8732:A2 *8971:B1 6.38806e-05
37 *345:12 *8688:C_N 0.000160125
38 *345:12 *8697:A3 9.23551e-05
39 *345:12 *8699:C1 6.95405e-05
40 *345:12 *8894:A_N 3.31204e-05
41 *345:12 *8894:D 9.54469e-05
42 *345:12 *644:45 0.000227527
43 *345:12 *759:22 4.40506e-05
44 *345:12 *759:33 9.2006e-05
45 *345:12 *760:48 1.70935e-05
46 *345:23 *8693:A1 0.000171755
47 *345:23 *8709:B2 8.41703e-06
48 *345:23 *8728:A3 6.72823e-05
49 *345:23 *9084:D 0.000116416
50 *345:23 *512:12 0
51 *345:23 *644:39 0.000847094
52 *345:23 *644:45 0.000206328
53 *345:38 *8709:B2 6.03947e-06
54 *345:38 *8709:C1 0.000100142
55 *345:38 *8716:C1 7.06865e-05
56 *345:54 *8707:C1 0.00133613
57 *345:54 *8709:B2 0.000232116
58 *345:54 *8713:A2 3.59784e-05
59 *345:54 *8716:B2 5.83121e-06
60 *345:54 *735:837 8.23457e-05
61 *345:87 *8727:C1 0.000915633
62 *345:87 *8974:A0 1.88656e-05
63 *345:87 *383:8 5.02126e-06
64 *345:87 *525:28 7.94582e-05
65 *345:87 *534:68 8.66976e-06
66 *345:87 *735:847 9.02174e-05
67 *345:87 *740:25 0.000278658
68 *345:87 *744:18 1.7635e-05
69 *345:98 *8726:A1 0.000160641
70 *345:98 *525:28 3.52139e-06
71 *345:102 *8720:B1 2.59981e-05
72 *345:102 *347:57 4.70912e-05
73 *345:102 *533:49 4.47537e-05
74 *345:102 *533:58 7.33689e-05
75 *345:102 *533:75 0.000642228
76 *345:102 *533:84 0.000155194
77 *345:102 *533:101 9.54469e-05
78 *345:102 *686:39 5.8678e-05
79 *345:102 *722:22 3.18361e-05
80 *345:102 *722:24 0.000371867
81 *345:102 *722:26 8.93651e-05
82 *8687:C_N *345:54 2.49909e-05
83 *8702:B1 *345:12 0
84 *8702:B1 *345:23 0
85 *8715:D *345:54 1.34503e-05
86 *9104:D *345:87 3.21081e-06
87 *275:31 *345:23 0
88 *335:82 *345:54 0.000158072
89 *335:93 *345:54 4.60584e-05
90 *337:71 *345:38 0.000235238
91 *337:71 *345:54 9.80032e-06
92 *337:73 *345:54 1.47347e-05
93 *339:73 *345:54 2.85364e-05
94 *339:99 *8716:B1 0
95 *339:99 *345:54 0.000132026
96 *343:14 *8716:B1 1.66528e-05
97 *343:47 *345:38 2.84348e-05
98 *344:31 *345:23 0.000214733
99 *344:46 *345:23 6.36578e-05
100 *344:60 *345:54 0.000140503
*RES
1 *8689:X *345:12 10.14 
2 *345:12 *8699:B1 3.6 
3 *345:12 *345:23 14.345 
4 *345:23 *8709:B1 1.6 
5 *345:23 *345:38 11.2 
6 *345:38 *345:54 26.07 
7 *345:54 *8707:A2 7.98375 
8 *345:54 *345:87 8.41313 
9 *345:87 *8726:A2 1.6 
10 *345:87 *345:98 4.445 
11 *345:98 *345:102 14.855 
12 *345:102 *8732:A2 2.74 
13 *345:102 *8692:A2 8.53 
14 *345:98 *8720:A2 8.415 
15 *345:38 *8716:B1 2.755 
*END

*D_NET *346 0.000999279
*CONN
*I *8691:A I *D sky130_fd_sc_hd__clkbuf_4
*I *8690:X O *D sky130_fd_sc_hd__and3b_1
*CAP
1 *8691:A 0.000256783
2 *8690:X 0.000256783
3 *8691:A *8699:C1 9.37731e-05
4 *8691:A *8894:A_N 0.000287565
5 *8691:A *503:16 0.000104374
*RES
1 *8690:X *8691:A 11.88 
*END

*D_NET *347 0.0180243
*CONN
*I *8711:A2 I *D sky130_fd_sc_hd__a221o_1
*I *8714:A2 I *D sky130_fd_sc_hd__a22o_1
*I *8707:B1 I *D sky130_fd_sc_hd__a221o_1
*I *8937:C I *D sky130_fd_sc_hd__and4_1
*I *8936:A3 I *D sky130_fd_sc_hd__a31oi_4
*I *8692:B1 I *D sky130_fd_sc_hd__a22o_1
*I *8732:B1 I *D sky130_fd_sc_hd__a22o_1
*I *8726:B1 I *D sky130_fd_sc_hd__a22o_1
*I *8720:B1 I *D sky130_fd_sc_hd__a22o_1
*I *8702:A2 I *D sky130_fd_sc_hd__a221o_1
*I *8691:X O *D sky130_fd_sc_hd__clkbuf_4
*CAP
1 *8711:A2 0
2 *8714:A2 0.00028237
3 *8707:B1 1.19499e-05
4 *8937:C 4.82182e-05
5 *8936:A3 0
6 *8692:B1 0.000179531
7 *8732:B1 7.44409e-05
8 *8726:B1 0
9 *8720:B1 0.00034568
10 *8702:A2 3.53415e-05
11 *8691:X 5.46159e-05
12 *347:156 0.000673843
13 *347:103 0.000542965
14 *347:91 0.000348033
15 *347:85 0.00024139
16 *347:57 0.00067168
17 *347:51 0.00112381
18 *347:49 0.00171392
19 *347:31 0.00209968
20 *347:8 0.000759883
21 *8692:B1 *8692:A1 0.000208416
22 *8692:B1 *8970:A0 8.69014e-05
23 *8692:B1 *8970:S 4.66108e-05
24 *8692:B1 *700:36 0.000198939
25 *8707:B1 *8707:A1 9.53428e-06
26 *8707:B1 *8707:B2 5.46726e-06
27 *8714:A2 *8714:A1 5.37791e-05
28 *8714:A2 *8717:B1 5.062e-06
29 *8714:A2 *8721:C1 7.64794e-05
30 *8714:A2 *8908:B 0.000136321
31 *8714:A2 *515:30 1.60083e-05
32 *8714:A2 *521:16 4.26711e-05
33 *8720:B1 *8720:A1 9.53428e-06
34 *8720:B1 *8975:B1 0.000135533
35 *8720:B1 *8975:B2 9.03508e-06
36 *8720:B1 *8977:B2 2.05056e-05
37 *8720:B1 *8979:A2 0.000160635
38 *8720:B1 *533:122 0.000138555
39 *8720:B1 *534:68 0
40 *8720:B1 *534:79 0
41 *8720:B1 *537:130 2.16917e-05
42 *8720:B1 *735:892 0
43 *8732:B1 *700:36 0.000167003
44 *8937:C *8937:A 8.49205e-05
45 *347:31 *8722:A3 0.000539553
46 *347:31 *8900:A 4.78029e-05
47 *347:49 *8707:A1 3.06427e-05
48 *347:49 *8710:B 0.000125144
49 *347:49 *8711:C1 0.000341885
50 *347:49 *9073:CLK 8.40269e-05
51 *347:49 *9073:RESET_B 0.000102354
52 *347:49 *737:22 0.000173865
53 *347:51 *8707:A1 3.21904e-05
54 *347:51 *8707:B2 0.000352578
55 *347:51 *722:22 1.67382e-05
56 *347:51 *737:22 3.37941e-05
57 *347:57 *8727:C1 0
58 *347:57 *722:22 8.95625e-05
59 *347:57 *722:24 4.78726e-05
60 *347:57 *735:849 0
61 *347:57 *735:892 0
62 *347:85 *8972:A0 0.000223727
63 *347:85 *534:59 2.23485e-05
64 *347:85 *722:24 0
65 *347:85 *735:859 0.000291371
66 *347:91 *8937:B 0.000118527
67 *347:91 *8938:A 3.74161e-05
68 *347:91 *8972:A0 0.000141606
69 *347:91 *534:59 1.1561e-05
70 *347:103 *8938:A 0.000123225
71 *347:103 *8953:A1 3.76625e-05
72 *347:103 *8970:A1 2.04531e-05
73 *347:103 *8972:A0 5.62413e-05
74 *347:103 *685:25 0
75 *347:103 *722:24 6.48515e-05
76 *347:103 *722:26 5.9351e-05
77 *347:156 *8713:A2 8.49205e-05
78 *347:156 *8908:B 0.000157745
79 *347:156 *515:30 2.77434e-05
80 *8692:A2 *8692:B1 3.17326e-05
81 *8692:A2 *8732:B1 1.60203e-05
82 *8692:A2 *347:103 0.000170169
83 *8702:B1 *8702:A2 6.47505e-05
84 *8707:A2 *347:49 0.00010749
85 *8710:D *347:31 7.40446e-05
86 *8710:D *347:49 0.000150226
87 *8710:D *347:156 1.52184e-05
88 *8714:B1 *8714:A2 2.46089e-05
89 *8720:A2 *8720:B1 0.000285723
90 *8732:A2 *8732:B1 0.000121437
91 *8899:A *347:31 2.67222e-05
92 *8920:B *347:156 4.43871e-06
93 *9073:D *347:49 0.00032189
94 *9125:D *347:57 8.65961e-05
95 *335:34 *347:8 0.00013079
96 *335:34 *347:31 0.000331252
97 *335:57 *347:31 9.13949e-06
98 *335:67 *347:31 0.000268739
99 *335:67 *347:156 2.46007e-05
100 *335:73 *347:156 2.82643e-05
101 *335:93 *347:156 4.98014e-05
102 *337:38 *347:8 0.000130171
103 *337:38 *347:31 0.000312673
104 *337:49 *347:31 0.000568376
105 *337:62 *347:31 8.30853e-06
106 *339:55 *347:31 1.46744e-05
107 *339:55 *347:49 0.000111158
108 *344:60 *347:31 3.17555e-05
109 *344:66 *8714:A2 1.85235e-05
110 *344:66 *347:156 7.42175e-05
111 *345:102 *8720:B1 2.59981e-05
112 *345:102 *347:57 4.70912e-05
*RES
1 *8691:X *347:8 5.235 
2 *347:8 *8702:A2 4.2225 
3 *347:8 *347:31 19.28 
4 *347:31 *347:49 18.69 
5 *347:49 *347:51 8.04 
6 *347:51 *347:57 7.085 
7 *347:57 *8720:B1 11.475 
8 *347:57 *8726:B1 3.6 
9 *347:51 *347:85 5.93 
10 *347:85 *347:91 4.085 
11 *347:91 *347:103 11.17 
12 *347:103 *8732:B1 4.135 
13 *347:103 *8692:B1 6.82 
14 *347:91 *8936:A3 1.6 
15 *347:85 *8937:C 4.395 
16 *347:49 *8707:B1 1.96 
17 *347:31 *347:156 11.9275 
18 *347:156 *8714:A2 10.8875 
19 *347:156 *8711:A2 1.6 
*END

*D_NET *348 0.00623168
*CONN
*I *8693:C1 I *D sky130_fd_sc_hd__a221o_1
*I *8692:X O *D sky130_fd_sc_hd__a22o_1
*CAP
1 *8693:C1 0.00147933
2 *8692:X 0.00147933
3 *8693:C1 *8693:B2 0.000702601
4 *8693:C1 *8699:B2 0.000943275
5 *8693:C1 *8702:A1 5.36523e-05
6 *8693:C1 *8895:C 0.000158066
7 *8693:C1 *8896:A 4.82863e-05
8 *8693:C1 *8906:B 0.000192728
9 *8693:C1 *8924:A3 8.65961e-05
10 *8693:C1 *8925:A3 3.69766e-05
11 *8693:C1 *8932:D 0
12 *8693:C1 *8950:A1 1.0129e-05
13 *8693:C1 *505:8 4.82863e-05
14 *8693:C1 *764:18 9.44151e-05
15 *8693:C1 *764:33 0.000233768
16 *8692:A2 *8693:C1 1.40402e-05
17 *9072:D *8693:C1 6.71767e-05
18 *208:42 *8693:C1 0.000347799
19 *208:55 *8693:C1 0.000235231
*RES
1 *8692:X *8693:C1 31.9564 
*END

*D_NET *349 0.00284215
*CONN
*I *8697:A3 I *D sky130_fd_sc_hd__o32a_1
*I *8693:X O *D sky130_fd_sc_hd__a221o_1
*CAP
1 *8697:A3 0.000679776
2 *8693:X 0.000679776
3 *8697:A3 *8558:A 4.40899e-05
4 *8697:A3 *8697:B2 8.09753e-05
5 *8697:A3 *8713:B1 0
6 *8697:A3 *8722:A1 3.50033e-05
7 *8697:A3 *8722:A2 9.30787e-05
8 *8697:A3 *8722:B2 0.000106292
9 *8697:A3 *8728:A1 0
10 *8697:A3 *8728:A2 0.000119762
11 *8697:A3 *8733:C1 1.68017e-05
12 *8697:A3 *9084:D 0.000126376
13 *8697:A3 *644:45 0.00031513
14 *8697:A3 *760:24 5.43285e-05
15 *8697:A3 *760:37 1.64451e-05
16 *8697:A3 *760:48 0
17 *8685:A1 *8697:A3 2.16833e-05
18 *8697:A1 *8697:A3 1.03323e-05
19 *8697:A2 *8697:A3 0.000232111
20 *343:63 *8697:A3 0.000117832
21 *345:12 *8697:A3 9.23551e-05
*RES
1 *8693:X *8697:A3 21.75 
*END

*D_NET *350 0.00131976
*CONN
*I *8695:A I *D sky130_fd_sc_hd__dlymetal6s2s_1
*I *8694:X O *D sky130_fd_sc_hd__or3_1
*CAP
1 *8695:A 0.000234651
2 *8694:X 0.000234651
3 *8695:A *8713:A2 4.99619e-05
4 *8695:A *8716:B2 0.000200495
5 *8695:A *8721:B2 0.00015997
6 *8695:A *514:20 0.000310175
7 *8695:A *515:30 4.82863e-05
8 *8721:B1 *8695:A 8.15676e-05
*RES
1 *8694:X *8695:A 14.19 
*END

*D_NET *351 0.00416166
*CONN
*I *8696:A I *D sky130_fd_sc_hd__buf_2
*I *8962:A1 I *D sky130_fd_sc_hd__o32a_1
*I *8959:A1 I *D sky130_fd_sc_hd__o32a_1
*I *8960:A1 I *D sky130_fd_sc_hd__o32a_1
*I *8961:A1 I *D sky130_fd_sc_hd__o32a_1
*I *8695:X O *D sky130_fd_sc_hd__dlymetal6s2s_1
*CAP
1 *8696:A 0.000134987
2 *8962:A1 0.000164575
3 *8959:A1 2.09091e-05
4 *8960:A1 0.000179769
5 *8961:A1 3.70426e-05
6 *8695:X 0.000221548
7 *351:33 0.000373677
8 *351:31 0.00039846
9 *351:16 0.000227384
10 *351:12 0.00048599
11 *8959:A1 *8959:A3 4.99619e-05
12 *8959:A1 *8960:B1 5.91922e-06
13 *8960:A1 *8959:A3 2.30292e-05
14 *8960:A1 *8960:A2 1.9872e-05
15 *8960:A1 *8960:A3 4.59896e-06
16 *8960:A1 *8960:B1 5.10546e-05
17 *8960:A1 *644:37 2.33708e-05
18 *8961:A1 *8961:A3 0.000119762
19 *8961:A1 *519:14 6.58423e-05
20 *8962:A1 *8959:B1 4.77719e-05
21 *8962:A1 *531:97 4.66108e-05
22 *8962:A1 *531:106 0.00018179
23 *351:12 *8716:A1 0.000100874
24 *351:12 *8727:B2 0.000105841
25 *351:12 *735:513 0.000193806
26 *351:16 *8717:A1 0.000138264
27 *351:16 *8917:A3 1.71013e-05
28 *351:16 *8959:B1 0.000219692
29 *351:16 *9119:SET_B 8.17755e-05
30 *351:16 *735:513 2.90344e-05
31 *351:16 *735:794 1.54862e-05
32 *351:31 *8917:A3 5.92191e-05
33 *351:31 *8959:B1 0.000116165
34 *351:33 *8959:A2 8.34281e-06
35 *351:33 *8959:A3 3.83194e-05
36 *351:33 *8959:B1 8.52883e-05
37 *351:33 *8959:B2 2.75229e-05
38 *351:33 *531:106 1.46744e-05
39 *9121:D *8962:A1 2.63322e-05
*RES
1 *8695:X *351:12 10.61 
2 *351:12 *351:16 6.185 
3 *351:16 *8961:A1 4.74 
4 *351:16 *351:31 3.74 
5 *351:31 *351:33 2.865 
6 *351:33 *8960:A1 4.48 
7 *351:33 *8959:A1 2.41 
8 *351:31 *8962:A1 4.93 
9 *351:12 *8696:A 3.43 
*END

*D_NET *352 0.0114523
*CONN
*I *8958:A1 I *D sky130_fd_sc_hd__o32a_1
*I *8708:A2 I *D sky130_fd_sc_hd__o22a_1
*I *8956:A1 I *D sky130_fd_sc_hd__o32a_1
*I *8722:B1 I *D sky130_fd_sc_hd__o32a_1
*I *8697:B1 I *D sky130_fd_sc_hd__o32a_1
*I *8703:A2 I *D sky130_fd_sc_hd__o22a_1
*I *8734:B1 I *D sky130_fd_sc_hd__o32a_1
*I *8955:A1 I *D sky130_fd_sc_hd__o32a_1
*I *8728:B1 I *D sky130_fd_sc_hd__o32a_1
*I *8957:A1 I *D sky130_fd_sc_hd__o32a_1
*I *8696:X O *D sky130_fd_sc_hd__buf_2
*CAP
1 *8958:A1 9.03524e-05
2 *8708:A2 7.03287e-05
3 *8956:A1 0
4 *8722:B1 0.000159793
5 *8697:B1 0.000105115
6 *8703:A2 7.7905e-05
7 *8734:B1 1.77753e-05
8 *8955:A1 0
9 *8728:B1 4.69499e-05
10 *8957:A1 0.000231839
11 *8696:X 4.78063e-05
12 *352:107 0.000623616
13 *352:79 0.000143322
14 *352:73 0.000653553
15 *352:62 0.000354788
16 *352:60 0.000359847
17 *352:50 0.000746396
18 *352:37 0.000855849
19 *352:31 0.000617677
20 *352:8 0.000421876
21 *8697:B1 *761:28 0.000121437
22 *8703:A2 *8512:C1 3.06947e-05
23 *8703:A2 *8703:A1 5.4155e-06
24 *8703:A2 *8703:B1 8.40269e-05
25 *8703:A2 *8703:B2 8.23457e-05
26 *8703:A2 *571:28 4.66108e-05
27 *8703:A2 *577:26 0.000104732
28 *8708:A2 *619:14 4.41506e-05
29 *8722:B1 *8722:A3 1.37328e-05
30 *8728:B1 *9085:D 3.26889e-05
31 *8734:B1 *8734:A1 0
32 *8957:A1 *8705:A1 3.22338e-05
33 *8957:A1 *8902:A 0.000137702
34 *8957:A1 *8958:A2 0
35 *8957:A1 *509:64 6.36438e-07
36 *8957:A1 *509:77 0.000134436
37 *8957:A1 *510:14 0.000215829
38 *8957:A1 *510:108 4.66108e-05
39 *8957:A1 *514:20 6.86575e-05
40 *8957:A1 *614:56 7.97984e-05
41 *8958:A1 *574:18 0.000113073
42 *352:31 *8705:A1 0.000311886
43 *352:31 *8911:A3 6.10941e-05
44 *352:31 *514:20 0.000271253
45 *352:37 *8705:A1 0.000504179
46 *352:37 *8713:B1 0.000288997
47 *352:37 *8728:A2 8.23457e-05
48 *352:37 *8728:A3 1.91597e-05
49 *352:37 *8728:B2 0
50 *352:37 *8911:A3 3.36291e-05
51 *352:37 *9085:D 2.02487e-05
52 *352:50 *8708:B1 0.000170797
53 *352:50 *531:38 9.95272e-05
54 *352:50 *617:25 0.000139843
55 *352:50 *711:101 0.000114492
56 *352:60 *8708:B1 7.63883e-05
57 *352:60 *8907:A3 4.43871e-06
58 *352:60 *8955:A2 8.7152e-06
59 *352:60 *8956:A3 8.40269e-05
60 *352:60 *510:129 4.01403e-05
61 *352:60 *531:20 5.46877e-05
62 *352:60 *711:101 0.000179015
63 *352:62 *8733:B2 0
64 *352:62 *8955:A2 0.000162633
65 *352:62 *8955:A3 0
66 *352:62 *8955:B2 8.09021e-06
67 *352:62 *8956:B1 0
68 *352:73 *8703:B1 3.18137e-05
69 *352:73 *8733:B2 0
70 *352:73 *8734:A3 9.47454e-05
71 *352:73 *8956:B1 0
72 *352:79 *8512:C1 4.66826e-05
73 *352:79 *8734:A1 0
74 *352:79 *577:26 4.92062e-05
75 *352:107 *8703:B1 2.97561e-05
76 *352:107 *8703:B2 0
77 *352:107 *8713:B1 9.09288e-05
78 *352:107 *8734:A1 7.26551e-05
79 *352:107 *8734:A2 0.000109429
80 *352:107 *8734:A3 1.34361e-05
81 *352:107 *8734:B2 5.16418e-05
82 *352:107 *571:28 3.33356e-05
83 *352:107 *642:33 0.000233004
84 *352:107 *707:10 0
85 *352:107 *759:18 7.25036e-05
86 *352:107 *761:28 8.52172e-05
87 *8685:A2 *8697:B1 4.99619e-05
88 *9115:D *352:60 2.50573e-05
89 *9116:D *8957:A1 4.41506e-05
90 *9117:D *8958:A1 5.05437e-05
91 *9120:D *8957:A1 8.53113e-06
92 *275:73 *352:60 1.08784e-05
93 *275:73 *352:62 2.0851e-06
94 *336:97 *8697:B1 0.000223128
95 *336:97 *8722:B1 4.66108e-05
96 *336:97 *352:107 2.07184e-05
97 *340:75 *8722:B1 8.30319e-05
98 *340:86 *8722:B1 0.000118081
99 *344:10 *352:73 0
100 *344:27 *352:73 0
*RES
1 *8696:X *352:8 4.05 
2 *352:8 *8957:A1 10.14 
3 *352:8 *352:31 4.89 
4 *352:31 *352:37 10.145 
5 *352:37 *8728:B1 2.47 
6 *352:37 *352:50 9.395 
7 *352:50 *352:60 8.59 
8 *352:60 *352:62 2.4 
9 *352:62 *8955:A1 3.6 
10 *352:62 *352:73 4.125 
11 *352:73 *352:79 3.155 
12 *352:79 *8734:B1 1.96 
13 *352:79 *8703:A2 4.135 
14 *352:73 *352:107 12.955 
15 *352:107 *8697:B1 6.705 
16 *352:107 *8722:B1 6.48 
17 *352:60 *8956:A1 3.6 
18 *352:50 *8708:A2 4.395 
19 *352:31 *8958:A1 5.79 
*END

*D_NET *353 0.00151757
*CONN
*I *8699:C1 I *D sky130_fd_sc_hd__a221o_1
*I *8698:X O *D sky130_fd_sc_hd__and4b_1
*CAP
1 *8699:C1 0.000483547
2 *8698:X 0.000483547
3 *8699:C1 *8679:A 9.10452e-05
4 *8699:C1 *8722:A3 0
5 *8699:C1 *8894:A_N 1.07797e-05
6 *8699:C1 *8894:B_N 0.00013521
7 *8699:C1 *759:41 0
8 *8699:C1 *761:42 0.00010804
9 *8691:A *8699:C1 9.37731e-05
10 *8698:D *8699:C1 1.52352e-05
11 *8702:B1 *8699:C1 9.50342e-06
12 *275:31 *8699:C1 1.73524e-05
13 *345:12 *8699:C1 6.95405e-05
*RES
1 *8698:X *8699:C1 14.985 
*END

*D_NET *354 0.00180556
*CONN
*I *8703:B1 I *D sky130_fd_sc_hd__o22a_1
*I *8699:X O *D sky130_fd_sc_hd__a221o_1
*CAP
1 *8703:B1 0.000526611
2 *8699:X 0.000526611
3 *8703:B1 *8512:C1 8.57024e-05
4 *8703:B1 *8703:B2 0.000340573
5 *8703:B1 *8733:A1 6.83186e-05
6 *8703:B1 *8956:B1 9.50342e-06
7 *8703:B1 *571:28 4.9968e-05
8 *8703:B1 *617:25 2.67591e-05
9 *8703:A2 *8703:B1 8.40269e-05
10 *8733:A2 *8703:B1 2.59134e-05
11 *352:73 *8703:B1 3.18137e-05
12 *352:107 *8703:B1 2.97561e-05
*RES
1 *8699:X *8703:B1 16.08 
*END

*D_NET *355 0.000581142
*CONN
*I *8701:A1 I *D sky130_fd_sc_hd__a211oi_1
*I *8700:Y O *D sky130_fd_sc_hd__inv_2
*CAP
1 *8701:A1 0.000175213
2 *8700:Y 0.000175213
3 *8701:A1 *742:58 0
4 *8701:A1 *742:73 0.00011852
5 *275:16 *8701:A1 0
6 *338:24 *8701:A1 0.000112198
*RES
1 *8700:Y *8701:A1 10.875 
*END

*D_NET *356 0.00326918
*CONN
*I *8702:C1 I *D sky130_fd_sc_hd__a221o_1
*I *8701:Y O *D sky130_fd_sc_hd__a211oi_1
*CAP
1 *8702:C1 0.000653931
2 *8701:Y 0.000653931
3 *8702:C1 *8683:A 6.44505e-05
4 *8702:C1 *8686:B 4.82919e-05
5 *8702:C1 *8702:B2 9.98867e-06
6 *8702:C1 *8704:B 0.000119246
7 *8702:C1 *8722:A3 0.000527074
8 *8702:C1 *8894:B_N 7.89034e-05
9 *8702:C1 *503:16 0.000333812
10 *8702:C1 *524:12 0.000133397
11 *8702:C1 *759:41 3.64741e-05
12 *8702:C1 *760:24 0
13 *8686:D *8702:C1 4.99619e-05
14 *275:16 *8702:C1 9.14049e-05
15 *336:12 *8702:C1 0.000346763
16 *338:14 *8702:C1 0
17 *338:18 *8702:C1 0.000112825
18 *339:36 *8702:C1 8.72912e-06
*RES
1 *8701:Y *8702:C1 27.505 
*END

*D_NET *357 0.00383559
*CONN
*I *8703:B2 I *D sky130_fd_sc_hd__o22a_1
*I *8702:X O *D sky130_fd_sc_hd__a221o_1
*CAP
1 *8703:B2 0.000887539
2 *8702:X 0.000887539
3 *8703:B2 *8512:C1 8.23457e-05
4 *8703:B2 *8699:A1 1.79892e-05
5 *8703:B2 *8699:B2 2.98652e-05
6 *8703:B2 *8734:A2 6.10014e-05
7 *8703:B2 *8734:A3 4.40725e-05
8 *8703:B2 *572:20 0.000112123
9 *8703:B2 *707:10 0.000112123
10 *8703:B2 *759:18 9.17155e-05
11 *8703:B2 *759:22 1.10808e-05
12 *8703:B2 *761:34 2.75145e-05
13 *8702:B1 *8703:B2 0.000232111
14 *8703:A2 *8703:B2 8.23457e-05
15 *8703:B1 *8703:B2 0.000340573
16 *8733:A2 *8703:B2 0.000397368
17 *275:31 *8703:B2 0.00015639
18 *344:10 *8703:B2 0.000261889
19 *352:107 *8703:B2 0
*RES
1 *8702:X *8703:B2 28.825 
*END

*D_NET *358 0.00140192
*CONN
*I *8705:C1 I *D sky130_fd_sc_hd__a221o_1
*I *8704:X O *D sky130_fd_sc_hd__and4b_1
*CAP
1 *8705:C1 0.000409002
2 *8704:X 0.000409002
3 *8705:C1 *8705:B2 8.7152e-06
4 *8705:C1 *8903:B 9.88252e-05
5 *8705:C1 *512:12 7.11219e-05
6 *275:31 *8705:C1 0.000101317
7 *275:50 *8705:C1 2.96963e-05
8 *335:34 *8705:C1 0.000111701
9 *344:31 *8705:C1 0.000162539
*RES
1 *8704:X *8705:C1 14.43 
*END

*D_NET *359 0.00196671
*CONN
*I *8708:B1 I *D sky130_fd_sc_hd__o22a_1
*I *8705:X O *D sky130_fd_sc_hd__a221o_1
*CAP
1 *8708:B1 0.000570027
2 *8705:X 0.000570027
3 *8708:B1 *8705:A1 8.41307e-05
4 *8708:B1 *531:20 0.000127226
5 *8708:B1 *531:38 0.000127924
6 *8708:B1 *711:101 0.000137241
7 *275:63 *8708:B1 0.000102949
8 *352:50 *8708:B1 0.000170797
9 *352:60 *8708:B1 7.63883e-05
*RES
1 *8705:X *8708:B1 16.08 
*END

*D_NET *360 0.00768508
*CONN
*I *8709:C1 I *D sky130_fd_sc_hd__a221o_1
*I *8717:A2 I *D sky130_fd_sc_hd__a211o_1
*I *8954:A3 I *D sky130_fd_sc_hd__a31o_2
*I *8707:C1 I *D sky130_fd_sc_hd__a221o_1
*I *8706:Y O *D sky130_fd_sc_hd__nor3_2
*CAP
1 *8709:C1 0.000178098
2 *8717:A2 0.000248709
3 *8954:A3 0.000161361
4 *8707:C1 0.00162412
5 *8706:Y 0
6 *360:36 0.000540512
7 *360:6 0.00182448
8 *360:4 0.000152709
9 *8707:C1 *8707:A1 0
10 *8707:C1 *525:8 0
11 *8707:C1 *525:96 0
12 *8707:C1 *695:8 0
13 *8707:C1 *735:837 0.000210961
14 *8707:C1 *735:847 5.83121e-06
15 *8707:C1 *748:18 0
16 *8709:C1 *508:18 8.1871e-05
17 *8717:A2 *8716:A1 1.14673e-05
18 *8717:A2 *8716:C1 0
19 *8717:A2 *8717:A1 5.18317e-06
20 *8717:A2 *8717:C1 1.90278e-05
21 *8717:A2 *8727:B2 0.000124285
22 *8717:A2 *8727:C1 0.000102237
23 *8954:A3 *8705:B2 4.66108e-05
24 *8954:A3 *383:101 4.82863e-05
25 *8687:A *8717:A2 8.69417e-06
26 *8687:C_N *8707:C1 1.12578e-05
27 *8687:C_N *360:6 4.87465e-06
28 *8687:C_N *360:36 4.82919e-05
29 *8709:A2 *8709:C1 0
30 *8721:A2 *8717:A2 0.000172023
31 *335:55 *8954:A3 0.000113797
32 *337:62 *8717:A2 2.85364e-05
33 *337:71 *8709:C1 2.49909e-05
34 *337:71 *360:36 0.000128712
35 *339:47 *8954:A3 0.000115464
36 *339:51 *8954:A3 1.82476e-05
37 *339:73 *8954:A3 4.92096e-05
38 *343:47 *8709:C1 4.66108e-05
39 *344:60 *8717:A2 0
40 *344:60 *8954:A3 9.23473e-05
41 *345:38 *8709:C1 0.000100142
42 *345:54 *8707:C1 0.00133613
*RES
1 *8706:Y *360:4 1.6 
2 *360:4 *360:6 0.615 
3 *360:6 *8707:C1 26.66 
4 *360:6 *8954:A3 9.92 
5 *360:4 *360:36 2.52 
6 *360:36 *8717:A2 11.15 
7 *360:36 *8709:C1 5.17 
*END

*D_NET *361 0.00662826
*CONN
*I *8708:B2 I *D sky130_fd_sc_hd__o22a_1
*I *8707:X O *D sky130_fd_sc_hd__a221o_1
*CAP
1 *8708:B2 0.00217876
2 *8707:X 0.00217876
3 *8708:B2 *8699:A1 0.000138995
4 *8708:B2 *8705:B2 0.000113271
5 *8708:B2 *8898:A1 0.000195476
6 *8708:B2 *8907:A1 0.00012349
7 *8708:B2 *8907:B1 4.82919e-05
8 *8708:B2 *8907:B2 0
9 *8708:B2 *8932:D 0
10 *8708:B2 *8935:A1 0.000182143
11 *8708:B2 *383:8 0.000184717
12 *8708:B2 *383:101 0.000185856
13 *8708:B2 *502:70 0.000131658
14 *8708:B2 *502:85 0
15 *8708:B2 *572:20 0.000122331
16 *8708:B2 *619:14 0.000100407
17 *8708:B2 *707:88 0.00013798
18 *8708:B2 *722:6 0.0001947
19 *8708:B2 *736:41 0.000233792
20 *8708:B2 *744:18 9.97627e-05
21 *8954:B1 *8708:B2 7.78761e-05
*RES
1 *8707:X *8708:B2 47.23 
*END

*D_NET *362 0.000814072
*CONN
*I *8713:A1 I *D sky130_fd_sc_hd__o21a_1
*I *8709:X O *D sky130_fd_sc_hd__a221o_1
*CAP
1 *8713:A1 0.000211121
2 *8709:X 0.000211121
3 *8713:A1 *8709:A1 0.00023159
4 *8713:A1 *8713:B1 4.40812e-05
5 *8713:A1 *8728:B2 0.000116158
*RES
1 *8709:X *8713:A1 10.755 
*END

*D_NET *363 0.0014688
*CONN
*I *8711:C1 I *D sky130_fd_sc_hd__a221o_1
*I *8710:X O *D sky130_fd_sc_hd__and4b_1
*CAP
1 *8711:C1 0.000350286
2 *8710:X 0.000350286
3 *8711:C1 *8547:C 0.000155117
4 *8711:C1 *8711:B2 9.50342e-06
5 *8714:B1 *8711:C1 2.13396e-05
6 *8922:C *8711:C1 0.000240389
7 *347:49 *8711:C1 0.000341885
*RES
1 *8710:X *8711:C1 13.83 
*END

*D_NET *364 0.00274987
*CONN
*I *8713:A2 I *D sky130_fd_sc_hd__o21a_1
*I *8711:X O *D sky130_fd_sc_hd__a221o_1
*CAP
1 *8713:A2 0.000584713
2 *8711:X 0.000584713
3 *8713:A2 *8711:A1 0
4 *8713:A2 *8716:B2 1.12643e-05
5 *8713:A2 *8717:C1 2.75229e-05
6 *8713:A2 *8727:B2 5.61105e-05
7 *8713:A2 *512:26 0.000536178
8 *8713:A2 *515:30 0.000463388
9 *8713:A2 *573:6 5.85534e-05
10 *8695:A *8713:A2 4.99619e-05
11 *8716:B1 *8713:A2 2.82889e-05
12 *8721:A2 *8713:A2 1.2818e-05
13 *8727:A2 *8713:A2 4.63498e-05
14 *339:99 *8713:A2 8.75256e-05
15 *343:14 *8713:A2 5.55896e-05
16 *344:66 *8713:A2 2.59926e-05
17 *345:54 *8713:A2 3.59784e-05
18 *347:156 *8713:A2 8.49205e-05
*RES
1 *8711:X *8713:A2 17.705 
*END

*D_NET *365 0.00573911
*CONN
*I *8713:B1 I *D sky130_fd_sc_hd__o21a_1
*I *8712:X O *D sky130_fd_sc_hd__or4_1
*CAP
1 *8713:B1 0.00125004
2 *8712:X 0.00125004
3 *8713:B1 *8699:A1 0.000502432
4 *8713:B1 *8705:A1 0.000178808
5 *8713:B1 *8722:B2 0.000205014
6 *8713:B1 *8728:A1 0.00143658
7 *8713:B1 *8728:B2 3.60648e-06
8 *8713:B1 *8733:C1 1.81522e-05
9 *8713:B1 *8907:A1 0.000181512
10 *8713:B1 *642:33 0.000101093
11 *8713:B1 *707:10 3.86529e-05
12 *8713:B1 *759:18 7.23533e-05
13 *8697:A3 *8713:B1 0
14 *8713:A1 *8713:B1 4.40812e-05
15 *343:53 *8713:B1 7.21296e-06
16 *343:55 *8713:B1 1.7396e-05
17 *343:57 *8713:B1 4.79668e-05
18 *343:63 *8713:B1 4.24292e-06
19 *352:37 *8713:B1 0.000288997
20 *352:107 *8713:B1 9.09288e-05
*RES
1 *8712:X *8713:B1 39.265 
*END

*D_NET *366 0.0018041
*CONN
*I *8717:B1 I *D sky130_fd_sc_hd__a211o_1
*I *8714:X O *D sky130_fd_sc_hd__a22o_1
*CAP
1 *8717:B1 0.000586749
2 *8714:X 0.000586749
3 *8717:B1 *8721:A1 1.70069e-05
4 *8717:B1 *8721:B2 7.25921e-06
5 *8717:B1 *8721:C1 6.00676e-05
6 *8717:B1 *8722:A3 0.00022707
7 *8717:B1 *574:18 5.39667e-05
8 *8714:A2 *8717:B1 5.062e-06
9 *8721:A2 *8717:B1 0.000138118
10 *8721:B1 *8717:B1 2.96124e-05
11 *8920:A *8717:B1 2.75145e-05
12 *8920:D_N *8717:B1 6.4925e-05
*RES
1 *8714:X *8717:B1 13.025 
*END

*D_NET *367 0.00114066
*CONN
*I *8716:C1 I *D sky130_fd_sc_hd__a221o_1
*I *8715:X O *D sky130_fd_sc_hd__and4b_1
*CAP
1 *8716:C1 0.000295715
2 *8715:X 0.000295715
3 *8716:C1 *8716:B2 9.50342e-06
4 *8715:D *8716:C1 0.00015896
5 *8717:A2 *8716:C1 0
6 *8721:B1 *8716:C1 0
7 *337:71 *8716:C1 0.000157172
8 *337:73 *8716:C1 4.82919e-05
9 *344:60 *8716:C1 0.000104619
10 *345:38 *8716:C1 7.06865e-05
*RES
1 *8715:X *8716:C1 11.79 
*END

*D_NET *368 0.000564013
*CONN
*I *8717:C1 I *D sky130_fd_sc_hd__a211o_1
*I *8716:X O *D sky130_fd_sc_hd__a221o_1
*CAP
1 *8717:C1 0.000164882
2 *8716:X 0.000164882
3 *8717:C1 *8717:A1 1.42698e-05
4 *8717:C1 *8722:A3 6.83447e-05
5 *8717:C1 *8727:B2 0.000105084
6 *8717:C1 *508:54 0
7 *8713:A2 *8717:C1 2.75229e-05
8 *8717:A2 *8717:C1 1.90278e-05
*RES
1 *8716:X *8717:C1 10.185 
*END

*D_NET *369 0.00120558
*CONN
*I *8722:A1 I *D sky130_fd_sc_hd__o32a_1
*I *8718:Y O *D sky130_fd_sc_hd__a211oi_1
*CAP
1 *8722:A1 0.000262255
2 *8718:Y 0.000262255
3 *8722:A1 *8558:A 0
4 *8722:A1 *8722:A2 9.30787e-05
5 *8722:A1 *760:24 0.000246432
6 *8697:A2 *8722:A1 1.88081e-05
7 *8697:A3 *8722:A1 3.50033e-05
8 *336:23 *8722:A1 6.65203e-05
9 *336:27 *8722:A1 6.10014e-05
10 *340:12 *8722:A1 4.85087e-05
11 *340:18 *8722:A1 0.000105018
12 *340:25 *8722:A1 6.69608e-06
*RES
1 *8718:Y *8722:A1 13.365 
*END

*D_NET *370 0.000640044
*CONN
*I *8722:A2 I *D sky130_fd_sc_hd__o32a_1
*I *8719:X O *D sky130_fd_sc_hd__and4b_1
*CAP
1 *8722:A2 0.000148357
2 *8719:X 0.000148357
3 *8722:A2 *8725:B 0.000157172
4 *8697:A3 *8722:A2 9.30787e-05
5 *8722:A1 *8722:A2 9.30787e-05
*RES
1 *8719:X *8722:A2 9.81 
*END

*D_NET *371 0.00625043
*CONN
*I *8721:C1 I *D sky130_fd_sc_hd__a221o_1
*I *8720:X O *D sky130_fd_sc_hd__a22o_1
*CAP
1 *8721:C1 0.00259889
2 *8720:X 0.00259889
3 *8721:C1 *8709:B2 0
4 *8721:C1 *8720:A1 4.18603e-06
5 *8721:C1 *8921:A 4.99619e-05
6 *8721:C1 *8929:B1 6.60794e-05
7 *8721:C1 *8977:B1 0
8 *8721:C1 *8977:B2 0
9 *8721:C1 *521:16 1.00941e-05
10 *8721:C1 *537:130 1.88904e-05
11 *8721:C1 *698:14 0
12 *8721:C1 *740:25 0.000545651
13 *8714:A2 *8721:C1 7.64794e-05
14 *8717:B1 *8721:C1 6.00676e-05
15 *8721:A2 *8721:C1 0
16 *8721:B1 *8721:C1 1.48813e-05
17 *8920:A *8721:C1 4.82863e-05
18 *8920:D_N *8721:C1 0.000158066
*RES
1 *8720:X *8721:C1 17.4865 
*END

*D_NET *372 0.00609713
*CONN
*I *8722:A3 I *D sky130_fd_sc_hd__o32a_1
*I *8721:X O *D sky130_fd_sc_hd__a221o_1
*CAP
1 *8722:A3 0.00124895
2 *8721:X 0.00124895
3 *8722:A3 *8699:B2 1.92979e-05
4 *8722:A3 *8727:B2 3.72378e-05
5 *8722:A3 *8727:C1 0.000185807
6 *8722:A3 *8904:A1 7.87799e-05
7 *8722:A3 *508:8 9.71067e-05
8 *8722:A3 *508:54 0.000251488
9 *8722:A3 *704:110 1.17309e-05
10 *8680:A *8722:A3 0.000136877
11 *8699:C1 *8722:A3 0
12 *8702:C1 *8722:A3 0.000527074
13 *8717:B1 *8722:A3 0.00022707
14 *8717:C1 *8722:A3 6.83447e-05
15 *8722:B1 *8722:A3 1.37328e-05
16 *8727:B1 *8722:A3 6.5313e-05
17 *275:16 *8722:A3 0
18 *275:31 *8722:A3 0.000300928
19 *275:50 *8722:A3 2.52323e-05
20 *335:34 *8722:A3 0.000737777
21 *337:62 *8722:A3 4.45582e-05
22 *338:14 *8722:A3 3.17252e-05
23 *340:6 *8722:A3 0.000113247
24 *340:75 *8722:A3 8.63479e-05
25 *347:31 *8722:A3 0.000539553
*RES
1 *8721:X *8722:A3 37.41 
*END

*D_NET *373 0.000895854
*CONN
*I *8724:A1 I *D sky130_fd_sc_hd__a211oi_1
*I *8723:Y O *D sky130_fd_sc_hd__inv_2
*CAP
1 *8724:A1 0.000398327
2 *8723:Y 0.000398327
3 *8724:A1 *8723:A 2.68464e-05
4 *8724:A1 *761:28 0
5 *9178:A *8724:A1 7.23533e-05
*RES
1 *8723:Y *8724:A1 11.97 
*END

*D_NET *374 0.00551435
*CONN
*I *8728:A1 I *D sky130_fd_sc_hd__o32a_1
*I *8724:Y O *D sky130_fd_sc_hd__a211oi_1
*CAP
1 *8728:A1 0.000811703
2 *8724:Y 0.000811703
3 *8728:A1 *8558:A 0.000170133
4 *8728:A1 *8722:B2 0
5 *8728:A1 *8728:A2 0.00164447
6 *8728:A1 *8734:A1 0.000159673
7 *8728:A1 *8907:A1 1.26626e-05
8 *8728:A1 *9079:D 1.88656e-05
9 *8685:A1 *8728:A1 0.000131881
10 *8697:A3 *8728:A1 0
11 *8713:B1 *8728:A1 0.00143658
12 *8724:C1 *8728:A1 0.000215492
13 *9178:A *8728:A1 8.97642e-05
14 *340:25 *8728:A1 1.14169e-05
*RES
1 *8724:Y *8728:A1 33.915 
*END

*D_NET *375 0.00537779
*CONN
*I *8728:A2 I *D sky130_fd_sc_hd__o32a_1
*I *8725:X O *D sky130_fd_sc_hd__and4b_1
*CAP
1 *8728:A2 0.000733909
2 *8725:X 0.000733909
3 *8728:A2 *8697:B2 0.00095966
4 *8728:A2 *8705:A1 7.30547e-05
5 *8728:A2 *8728:A3 0.00023886
6 *8728:A2 *8733:B2 2.61795e-05
7 *8728:A2 *8905:A3 5.17276e-05
8 *8728:A2 *8906:B 0.000168042
9 *8728:A2 *8907:A1 0.000331821
10 *8728:A2 *8955:A3 1.95781e-05
11 *8728:A2 *9085:D 0.000118081
12 *8697:A3 *8728:A2 0.000119762
13 *8728:A1 *8728:A2 0.00164447
14 *343:53 *8728:A2 7.63883e-05
15 *352:37 *8728:A2 8.23457e-05
*RES
1 *8725:X *8728:A2 35.665 
*END

*D_NET *376 0.00796669
*CONN
*I *8727:C1 I *D sky130_fd_sc_hd__a221o_1
*I *8726:X O *D sky130_fd_sc_hd__a22o_1
*CAP
1 *8727:C1 0.00178643
2 *8726:X 0.00178643
3 *8727:C1 *8705:B2 0
4 *8727:C1 *8709:B2 0.00196419
5 *8727:C1 *8727:B2 9.09788e-06
6 *8727:C1 *8908:B 0.000300253
7 *8727:C1 *735:849 6.63219e-06
8 *8727:C1 *736:31 0.000773452
9 *8727:C1 *740:25 9.80172e-05
10 *8717:A2 *8727:C1 0.000102237
11 *8722:A3 *8727:C1 0.000185807
12 *337:62 *8727:C1 3.85204e-05
13 *345:87 *8727:C1 0.000915633
14 *347:57 *8727:C1 0
*RES
1 *8726:X *8727:C1 15.8122 
*END

*D_NET *377 0.00138813
*CONN
*I *8728:A3 I *D sky130_fd_sc_hd__o32a_1
*I *8727:X O *D sky130_fd_sc_hd__a221o_1
*CAP
1 *8728:A3 0.000393019
2 *8727:X 0.000393019
3 *8728:A3 *8709:B2 1.92979e-05
4 *8728:A3 *9085:D 1.19928e-05
5 *8728:A3 *512:12 7.26551e-05
6 *8728:A3 *644:39 0
7 *8728:A2 *8728:A3 0.00023886
8 *343:10 *8728:A3 0.000154467
9 *344:46 *8728:A3 1.83756e-05
10 *345:23 *8728:A3 6.72823e-05
11 *352:37 *8728:A3 1.91597e-05
*RES
1 *8727:X *8728:A3 14.865 
*END

*D_NET *378 0.00112474
*CONN
*I *8730:A1 I *D sky130_fd_sc_hd__a211oi_1
*I *8729:Y O *D sky130_fd_sc_hd__inv_2
*CAP
1 *8730:A1 0.00029906
2 *8729:Y 0.00029906
3 *8730:A1 *8558:A 0.000252282
4 *8718:A1 *8730:A1 0
5 *237:46 *8730:A1 0.000274334
*RES
1 *8729:Y *8730:A1 12.63 
*END

*D_NET *379 0.00285906
*CONN
*I *8734:A1 I *D sky130_fd_sc_hd__o32a_1
*I *8730:Y O *D sky130_fd_sc_hd__a211oi_1
*CAP
1 *8734:A1 0.00058724
2 *8730:Y 0.00058724
3 *8734:A1 *8512:C1 0.000134314
4 *8734:A1 *8697:B2 0.000655413
5 *8734:A1 *8734:A2 0
6 *8734:A1 *577:26 3.03775e-05
7 *8734:A1 *761:28 0
8 *8728:A1 *8734:A1 0.000159673
9 *8734:B1 *8734:A1 0
10 *9178:A *8734:A1 0.000139245
11 *336:80 *8734:A1 0.000160974
12 *336:97 *8734:A1 0.000255609
13 *344:10 *8734:A1 7.63204e-05
14 *352:79 *8734:A1 0
15 *352:107 *8734:A1 7.26551e-05
*RES
1 *8730:Y *8734:A1 21.78 
*END

*D_NET *380 0.00103442
*CONN
*I *8734:A2 I *D sky130_fd_sc_hd__o32a_1
*I *8731:X O *D sky130_fd_sc_hd__and4b_1
*CAP
1 *8734:A2 0.000236095
2 *8731:X 0.000236095
3 *8734:A2 *8734:B2 2.97561e-05
4 *8734:A2 *759:18 0
5 *8734:A2 *761:28 0.000312083
6 *8703:B2 *8734:A2 6.10014e-05
7 *8712:A *8734:A2 4.99619e-05
8 *8734:A1 *8734:A2 0
9 *352:107 *8734:A2 0.000109429
*RES
1 *8731:X *8734:A2 13.11 
*END

*D_NET *381 0.00960804
*CONN
*I *8733:C1 I *D sky130_fd_sc_hd__a221o_1
*I *8732:X O *D sky130_fd_sc_hd__a22o_1
*CAP
1 *8733:C1 0.00281722
2 *8732:X 0.00281722
3 *8733:C1 *8699:A1 4.77757e-05
4 *8733:C1 *8699:B2 0.0033885
5 *8733:C1 *8906:B 8.09009e-05
6 *8733:C1 *533:49 2.05571e-05
7 *8733:C1 *686:39 0.00019488
8 *8733:C1 *722:26 6.15576e-06
9 *8697:A3 *8733:C1 1.68017e-05
10 *8713:B1 *8733:C1 1.81522e-05
11 *8733:A2 *8733:C1 0.000191335
12 *343:63 *8733:C1 8.53113e-06
*RES
1 *8732:X *8733:C1 17.1391 
*END

*D_NET *382 0.000243472
*CONN
*I *8734:A3 I *D sky130_fd_sc_hd__o32a_1
*I *8733:X O *D sky130_fd_sc_hd__a221o_1
*CAP
1 *8734:A3 4.5609e-05
2 *8733:X 4.5609e-05
3 *8703:B2 *8734:A3 4.40725e-05
4 *352:73 *8734:A3 9.47454e-05
5 *352:107 *8734:A3 1.34361e-05
*RES
1 *8733:X *8734:A3 8.58 
*END

*D_NET *383 0.0292318
*CONN
*I *8736:A_N I *D sky130_fd_sc_hd__and3b_1
*I *8904:A2 I *D sky130_fd_sc_hd__a31o_2
*I *8954:A2 I *D sky130_fd_sc_hd__a31o_2
*I *8932:C I *D sky130_fd_sc_hd__and4bb_1
*I *8922:B I *D sky130_fd_sc_hd__and4_1
*I *8936:A2 I *D sky130_fd_sc_hd__a31oi_4
*I *8937:B I *D sky130_fd_sc_hd__and4_1
*I *8897:A2 I *D sky130_fd_sc_hd__a31oi_1
*I *8951:A3 I *D sky130_fd_sc_hd__a41o_1
*I *8895:B I *D sky130_fd_sc_hd__and4_1
*I *8735:X O *D sky130_fd_sc_hd__buf_4
*CAP
1 *8736:A_N 0.00116242
2 *8904:A2 0.000219222
3 *8954:A2 1.50342e-05
4 *8932:C 0.000352795
5 *8922:B 0
6 *8936:A2 0
7 *8937:B 7.45587e-05
8 *8897:A2 8.78764e-05
9 *8951:A3 0
10 *8895:B 5.03636e-05
11 *8735:X 0
12 *383:101 0.000526567
13 *383:84 0.000847473
14 *383:73 0.00107285
15 *383:51 0.000517207
16 *383:27 0.000230594
17 *383:12 0.000274931
18 *383:10 0.000565669
19 *383:8 0.00407671
20 *383:6 0.00432747
21 *8736:A_N *8736:B 0.000164874
22 *8736:A_N *8736:C 5.73739e-05
23 *8736:A_N *9224:A 0.000118279
24 *8736:A_N *744:16 0.000122465
25 *8895:B *744:18 3.96507e-05
26 *8895:B *748:18 0.00011456
27 *8897:A2 *8951:A4 8.49205e-05
28 *8897:A2 *502:49 9.80032e-06
29 *8904:A2 *8705:B2 5.95425e-05
30 *8904:A2 *512:12 1.30284e-05
31 *8904:A2 *531:18 1.53674e-05
32 *8932:C *8702:A1 0.000157389
33 *8932:C *8702:B2 0.000279787
34 *8932:C *8924:B2 0
35 *8932:C *8925:A3 4.99619e-05
36 *8932:C *8932:D 0
37 *8932:C *8935:A1 0
38 *8932:C *503:16 0.000191521
39 *8932:C *503:30 0.000133615
40 *8932:C *763:34 0.000183525
41 *8937:B *8938:A 8.40213e-05
42 *8937:B *534:59 0.000118527
43 *8954:A2 *8705:B2 5.72675e-06
44 *383:8 *9074:CLK 0.000181361
45 *383:8 *9224:A 1.43521e-05
46 *383:8 *709:21 0.000172845
47 *383:8 *744:16 0.00347618
48 *383:8 *744:18 0.000355303
49 *383:8 *748:14 0.000844176
50 *383:8 *748:18 0.00162537
51 *383:8 *748:45 0.00262186
52 *383:10 *744:18 3.18219e-05
53 *383:10 *748:18 8.45475e-05
54 *383:12 *744:18 8.54274e-05
55 *383:12 *748:18 0.000216781
56 *383:27 *8702:A1 3.63661e-05
57 *383:27 *8951:A4 3.09774e-05
58 *383:27 *8951:B1 0.000123225
59 *383:27 *8952:B1_N 2.75229e-05
60 *383:27 *502:49 8.40269e-05
61 *383:51 *8936:A1 2.49909e-05
62 *383:51 *8938:A 7.40446e-05
63 *383:51 *8949:B2 0.000502803
64 *383:51 *9073:CLK 2.01259e-05
65 *383:51 *502:120 0.0002528
66 *383:51 *527:90 2.65814e-05
67 *383:73 *8715:B 7.25441e-05
68 *383:73 *8898:A2 1.16642e-05
69 *383:73 *8949:A2 3.38458e-05
70 *383:73 *502:61 3.95409e-05
71 *383:84 *8715:B 0.00014125
72 *383:84 *8923:A 4.82919e-05
73 *383:84 *502:70 2.96334e-05
74 *383:101 *8705:B2 0.00026888
75 *383:101 *8715:B 8.71079e-05
76 *383:101 *8924:B2 0
77 *383:101 *8932:D 0
78 *383:101 *531:18 7.38329e-05
79 *8707:A2 *383:8 0.000100303
80 *8708:B2 *383:8 0.000184717
81 *8708:B2 *383:101 0.000185856
82 *8904:A3 *8904:A2 3.85117e-05
83 *8922:C *383:84 0.00019637
84 *8922:D *383:73 0.000141874
85 *8922:D *383:84 8.65961e-05
86 *8954:A3 *383:101 4.82863e-05
87 *345:87 *383:8 5.02126e-06
88 *347:91 *8937:B 0.000118527
*RES
1 *8735:X *383:6 3.6 
2 *383:6 *383:8 113.325 
3 *383:8 *383:10 1.125 
4 *383:10 *383:12 2.655 
5 *383:12 *8895:B 4.98 
6 *383:12 *383:27 5.135 
7 *383:27 *8951:A3 1.6 
8 *383:27 *8897:A2 2.74 
9 *383:10 *383:51 11.225 
10 *383:51 *8937:B 7.775 
11 *383:51 *8936:A2 1.6 
12 *383:8 *383:73 11.765 
13 *383:73 *8922:B 1.6 
14 *383:73 *383:84 6.605 
15 *383:84 *8932:C 12.18 
16 *383:84 *383:101 9.065 
17 *383:101 *8954:A2 1.96 
18 *383:101 *8904:A2 5.02 
19 *383:6 *8736:A_N 22.65 
*END

*D_NET *384 0.000557838
*CONN
*I *8737:A I *D sky130_fd_sc_hd__buf_1
*I *8736:X O *D sky130_fd_sc_hd__and3b_1
*CAP
1 *8737:A 0.000278919
2 *8736:X 0.000278919
*RES
1 *8736:X *8737:A 11.46 
*END

*D_NET *385 0.00948308
*CONN
*I *8891:A2 I *D sky130_fd_sc_hd__o311a_1
*I *8884:A1 I *D sky130_fd_sc_hd__o21ai_1
*I *8888:B I *D sky130_fd_sc_hd__nor3_1
*I *8887:A1 I *D sky130_fd_sc_hd__o21a_1
*I *8844:D I *D sky130_fd_sc_hd__nor4_1
*I *8843:A3 I *D sky130_fd_sc_hd__o31a_1
*I *8848:A4 I *D sky130_fd_sc_hd__o41a_1
*I *8836:B I *D sky130_fd_sc_hd__or2_1
*I *8835:B I *D sky130_fd_sc_hd__nand2_1
*I *8741:A1 I *D sky130_fd_sc_hd__o21ba_1
*I *8738:X O *D sky130_fd_sc_hd__buf_2
*CAP
1 *8891:A2 0
2 *8884:A1 0.000248606
3 *8888:B 0
4 *8887:A1 4.67417e-05
5 *8844:D 8.12594e-06
6 *8843:A3 3.66924e-05
7 *8848:A4 7.09041e-05
8 *8836:B 0.000116516
9 *8835:B 0.000207936
10 *8741:A1 0.000496763
11 *8738:X 3.28188e-05
12 *385:118 0.000679755
13 *385:103 0.000548889
14 *385:90 0.000490483
15 *385:72 4.48183e-05
16 *385:61 0.000406112
17 *385:42 0.000451723
18 *385:40 0.000536553
19 *385:23 0.000693919
20 *385:6 0.000805014
21 *8741:A1 *8738:A 3.00381e-05
22 *8741:A1 *735:1364 4.57347e-05
23 *8835:B *8835:A 5.3444e-05
24 *8835:B *8837:A1 3.00381e-05
25 *8835:B *8838:B1 0
26 *8835:B *623:21 0.000126584
27 *8836:B *8836:A 0.000122325
28 *8836:B *8841:B1 8.23899e-05
29 *8836:B *461:18 9.66021e-05
30 *8843:A3 *8843:A1 1.85674e-05
31 *8843:A3 *8843:B1 4.82863e-05
32 *8843:A3 *8846:A2 2.0514e-05
33 *8843:A3 *630:48 9.0336e-05
34 *8844:D *8843:B1 4.82919e-05
35 *8844:D *630:48 3.74161e-05
36 *8848:A4 *8848:A3 4.11194e-05
37 *8848:A4 *623:55 6.9117e-05
38 *8848:A4 *631:44 7.21296e-06
39 *8884:A1 *8846:A1 5.85872e-05
40 *8884:A1 *8890:A2 0
41 *8884:A1 *8891:A1 5.56629e-05
42 *8884:A1 *8891:C1 0
43 *8884:A1 *629:10 0
44 *8887:A1 *8864:A1 0.000102018
45 *385:6 *8738:A 1.61831e-05
46 *385:23 *8840:A 5.4256e-05
47 *385:23 *8840:C 5.72004e-05
48 *385:23 *8841:B1 0
49 *385:23 *8846:A1 0.000157316
50 *385:23 *630:27 1.82563e-05
51 *385:40 *8841:B1 0.000159269
52 *385:40 *623:21 0.00011964
53 *385:40 *623:38 4.21973e-05
54 *385:61 *8841:B1 0
55 *385:61 *8846:A2 2.72165e-05
56 *385:61 *8846:B1 9.03429e-05
57 *385:61 *463:110 0.000150805
58 *385:61 *623:42 4.57752e-05
59 *385:61 *623:55 1.26626e-05
60 *385:61 *631:44 1.44259e-05
61 *385:90 *8846:A1 0
62 *385:90 *463:110 0
63 *385:90 *630:14 8.69126e-05
64 *385:90 *745:61 0.000134091
65 *385:103 *8846:A1 0
66 *385:103 *628:25 0
67 *385:103 *629:10 0
68 *385:103 *745:61 0.000199039
69 *385:118 *8513:A1 0.0001249
70 *385:118 *8890:A3 7.23533e-05
71 *385:118 *745:61 0.000136877
72 *8841:C1 *8836:B 3.26889e-05
73 *8845:C *385:40 5.4155e-06
74 *8864:B1 *385:118 3.03684e-05
75 *8881:B1 *8884:A1 0
76 *8887:A2 *8887:A1 0.000163199
77 *8891:A3 *8884:A1 0.000325771
78 *9048:D *385:23 0
79 *9049:D *385:23 0
80 *9060:D *8884:A1 3.90266e-05
81 *59:39 *8835:B 9.80032e-06
82 *59:47 *8835:B 0
83 *206:22 *385:103 2.97004e-06
84 *206:22 *385:118 1.95461e-05
85 *209:14 *385:118 1.06116e-05
86 *209:25 *385:118 1.73097e-05
87 *237:71 *8741:A1 0
*RES
1 *8738:X *385:6 2.05 
2 *385:6 *8741:A1 8.89 
3 *385:6 *385:23 9.46 
4 *385:23 *8835:B 5.515 
5 *385:23 *385:40 6.77 
6 *385:40 *385:42 2 
7 *385:42 *8836:B 5.0125 
8 *385:42 *385:61 8.96 
9 *385:61 *8848:A4 5.235 
10 *385:61 *385:72 2 
11 *385:72 *8843:A3 2.755 
12 *385:72 *8844:D 2.05 
13 *385:40 *385:90 5.97 
14 *385:90 *8887:A1 5.445 
15 *385:90 *385:103 2.4 
16 *385:103 *8888:B 3.6 
17 *385:103 *385:118 8.24 
18 *385:118 *8884:A1 11.435 
19 *385:118 *8891:A2 1.6 
*END

*D_NET *386 0.00271559
*CONN
*I *8740:B I *D sky130_fd_sc_hd__nor2_1
*I *8986:A1 I *D sky130_fd_sc_hd__o211ai_1
*I *8739:Y O *D sky130_fd_sc_hd__inv_2
*CAP
1 *8740:B 0.000168087
2 *8986:A1 0.00066134
3 *8739:Y 0
4 *386:4 0.000829427
5 *8740:B *8739:A 8.82793e-05
6 *8740:B *9164:CLK 5.97713e-05
7 *8986:A1 *8591:A_N 0
8 *8986:A1 *8739:A 3.00381e-05
9 *8986:A1 *9131:CLK 6.23375e-05
10 *8986:A1 *9164:CLK 7.8192e-05
11 *8986:A1 *707:134 0
12 *8986:A1 *707:151 0.000192209
13 *8986:A1 *720:21 5.42646e-05
14 *8555:A *8986:A1 0
15 *9131:D *8986:A1 0.000491641
*RES
1 *8739:Y *386:4 1.6 
2 *386:4 *8986:A1 18.965 
3 *386:4 *8740:B 4.495 
*END

*D_NET *387 0.00183909
*CONN
*I *8741:A2 I *D sky130_fd_sc_hd__o21ba_1
*I *8740:Y O *D sky130_fd_sc_hd__nor2_1
*CAP
1 *8741:A2 0.000688052
2 *8740:Y 0.000688052
3 *8741:A2 *9164:CLK 7.60965e-05
4 *8662:A *8741:A2 5.72004e-05
5 *9164:D *8741:A2 0.00013106
6 *9165:D *8741:A2 8.05681e-05
7 *9169:D *8741:A2 0.000118063
8 *234:135 *8741:A2 0
*RES
1 *8740:Y *8741:A2 17.04 
*END

*D_NET *388 0.00023058
*CONN
*I *8743:A I *D sky130_fd_sc_hd__clkbuf_1
*I *8742:X O *D sky130_fd_sc_hd__or2_1
*CAP
1 *8743:A 3.82677e-05
2 *8742:X 3.82677e-05
3 *8743:A *9046:CLK 0.000124007
4 *8743:A *665:30 3.00381e-05
*RES
1 *8742:X *8743:A 4.34 
*END

*D_NET *389 0.00125118
*CONN
*I *8745:A I *D sky130_fd_sc_hd__clkbuf_1
*I *8744:X O *D sky130_fd_sc_hd__or2_1
*CAP
1 *8745:A 0.000452397
2 *8744:X 0.000452397
3 *8745:A *8744:B 4.82863e-05
4 *8744:A *8745:A 6.52349e-05
5 *9135:D *8745:A 0.000144447
6 *9141:D *8745:A 8.84186e-05
*RES
1 *8744:X *8745:A 11.72 
*END

*D_NET *390 0.000871762
*CONN
*I *8747:B1 I *D sky130_fd_sc_hd__a211o_1
*I *8746:X O *D sky130_fd_sc_hd__o21a_1
*CAP
1 *8747:B1 0.000281911
2 *8746:X 0.000281911
3 *8747:B1 *8747:A2 4.00541e-06
4 *8747:B1 *9008:A1 9.50342e-06
5 *8747:B1 *650:18 2.16833e-05
6 *8747:B1 *712:25 4.91189e-05
7 *9008:A2 *8747:B1 6.55577e-05
8 *237:78 *8747:B1 0.000158072
9 *237:82 *8747:B1 0
*RES
1 *8746:X *8747:B1 12.51 
*END

*D_NET *391 0.00188973
*CONN
*I *8749:B1 I *D sky130_fd_sc_hd__a211o_1
*I *8748:X O *D sky130_fd_sc_hd__o21a_1
*CAP
1 *8749:B1 0.000480104
2 *8748:X 0.000480104
3 *8749:B1 *8617:B1 6.52265e-05
4 *8749:B1 *8748:A2 0.000140595
5 *8749:B1 *9005:A1 0.000195165
6 *8749:B1 *610:21 0.000277664
7 *8749:B1 *647:20 0.000250872
8 *292:74 *8749:B1 0
*RES
1 *8748:X *8749:B1 15.21 
*END

*D_NET *392 0.00150748
*CONN
*I *8751:C I *D sky130_fd_sc_hd__nand3b_4
*I *8750:X O *D sky130_fd_sc_hd__and4bb_1
*CAP
1 *8751:C 0.000368503
2 *8750:X 0.000368503
3 *8751:C *8571:A 0.000124332
4 *8751:C *8571:B 8.23457e-05
5 *8751:C *8814:B1 0.00013521
6 *8751:C *603:37 8.23457e-05
7 *8760:B *8751:C 4.66108e-05
8 *251:14 *8751:C 9.09788e-06
9 *251:16 *8751:C 0.000132462
10 *253:12 *8751:C 0.000158066
*RES
1 *8750:X *8751:C 13.53 
*END

*D_NET *393 0.0110049
*CONN
*I *8752:B1 I *D sky130_fd_sc_hd__o311ai_4
*I *8804:D I *D sky130_fd_sc_hd__nand4_4
*I *8805:C1 I *D sky130_fd_sc_hd__o311a_1
*I *8987:C I *D sky130_fd_sc_hd__nand4_1
*I *8812:B1 I *D sky130_fd_sc_hd__o2bb2ai_1
*I *8751:Y O *D sky130_fd_sc_hd__nand3b_4
*CAP
1 *8752:B1 6.35613e-05
2 *8804:D 0.000109955
3 *8805:C1 2.11963e-05
4 *8987:C 0.000529552
5 *8812:B1 0.00030057
6 *8751:Y 0.000295982
7 *393:61 0.00023987
8 *393:48 0.000395854
9 *393:29 0.00178057
10 *393:8 0.00153927
11 *8752:B1 *8788:B2 5.4003e-05
12 *8752:B1 *8993:A1 0
13 *8804:D *8788:B1 7.89933e-05
14 *8804:D *430:18 8.35068e-05
15 *8804:D *446:18 0.000173285
16 *8804:D *620:72 8.09454e-05
17 *8812:B1 *8812:A2_N 0.000198939
18 *8812:B1 *8812:B2 3.64998e-06
19 *8812:B1 *8815:B1 7.02712e-05
20 *8812:B1 *595:8 1.0183e-05
21 *8812:B1 *595:21 4.11281e-05
22 *8812:B1 *735:41 0
23 *8987:C *8802:B 0.000137894
24 *8987:C *8992:B1 1.13002e-05
25 *8987:C *8992:C1 0.000273088
26 *8987:C *408:10 0.000276535
27 *8987:C *408:25 1.41165e-05
28 *393:8 *8815:A2_N 2.75229e-05
29 *393:8 *603:37 2.10034e-05
30 *393:29 *8568:A 4.66108e-05
31 *393:29 *8573:A 4.60584e-05
32 *393:29 *8573:B 0.000207155
33 *393:29 *8767:C 0
34 *393:29 *8787:C 0.000262861
35 *393:29 *8802:B 0
36 *393:29 *9024:RESET_B 0
37 *393:29 *412:29 0
38 *393:29 *442:24 0
39 *393:29 *591:22 0.00104963
40 *393:29 *598:29 0.000386747
41 *393:29 *598:46 1.46828e-05
42 *393:29 *735:41 0
43 *393:48 *8786:B1 4.36573e-06
44 *393:48 *8787:C 0.000128763
45 *393:48 *8788:B2 0.000530328
46 *393:48 *8793:C 2.00272e-05
47 *393:48 *8794:B 0
48 *393:48 *760:24 0.000122324
49 *393:61 *8788:B2 0.000174279
50 *8588:A2 *393:48 0
51 *8588:B1 *393:48 0
52 *8750:A_N *8812:B1 0.000155928
53 *8770:A_N *8812:B1 4.62396e-05
54 *8770:A_N *393:29 1.22762e-05
55 *8787:A *8987:C 7.23533e-05
56 *8788:A2 *8752:B1 0.000116158
57 *8805:A1 *8805:C1 8.49535e-06
58 *8805:B1 *8752:B1 0.000195918
59 *8805:B1 *393:61 0.000155234
60 *189:20 *8804:D 0
61 *248:32 *393:8 0.000307417
62 *248:49 *393:29 5.11148e-06
63 *249:96 *8987:C 0
64 *249:96 *393:48 1.07797e-05
65 *252:22 *8987:C 3.48266e-05
66 *252:61 *8805:C1 9.65132e-06
67 *261:105 *393:48 3.68682e-05
68 *261:122 *393:48 4.18603e-06
69 *261:122 *393:61 6.83376e-06
70 *269:10 *393:29 0
*RES
1 *8751:Y *393:8 7.5 
2 *393:8 *8812:B1 9.885 
3 *393:8 *393:29 25.45 
4 *393:29 *8987:C 15.895 
5 *393:29 *393:48 7.245 
6 *393:48 *8805:C1 3.99375 
7 *393:48 *393:61 2.145 
8 *393:61 *8804:D 6.945 
9 *393:61 *8752:B1 6 
*END

*D_NET *394 0.000605058
*CONN
*I *8788:B1 I *D sky130_fd_sc_hd__o22ai_4
*I *8752:Y O *D sky130_fd_sc_hd__o311ai_4
*CAP
1 *8788:B1 8.41377e-05
2 *8752:Y 8.41377e-05
3 *8788:B1 *8806:A 0.000136884
4 *8788:B1 *8993:A1 0.000136884
5 *8788:B1 *620:72 8.40213e-05
6 *8788:B1 *620:80 0
7 *8804:D *8788:B1 7.89933e-05
*RES
1 *8752:Y *8788:B1 9.99 
*END

*D_NET *395 0.00282782
*CONN
*I *8795:C I *D sky130_fd_sc_hd__nand4_1
*I *8754:B I *D sky130_fd_sc_hd__nand2_1
*I *8753:Y O *D sky130_fd_sc_hd__nor4_1
*CAP
1 *8795:C 0.000156336
2 *8754:B 7.646e-05
3 *8753:Y 0.000372006
4 *395:18 0.000604803
5 *8754:B *8761:A1 1.1392e-05
6 *8754:B *591:22 0.00019637
7 *8795:C *441:12 7.90718e-05
8 *395:18 *8580:A 1.41559e-05
9 *395:18 *8753:D 4.82919e-05
10 *395:18 *419:10 6.28843e-05
11 *395:18 *590:27 0
12 *395:18 *590:42 4.39399e-05
13 *395:18 *591:22 0.000311294
14 *395:18 *591:31 1.34594e-05
15 *395:18 *718:10 1.07797e-05
16 *8565:D *395:18 0.000122325
17 *8754:A *8754:B 5.22973e-05
18 *8782:A *395:18 2.16833e-05
19 *244:22 *395:18 4.99619e-05
20 *244:34 *395:18 8.40269e-05
21 *245:21 *8795:C 7.97205e-05
22 *245:32 *8754:B 4.21973e-05
23 *245:32 *395:18 5.55342e-05
24 *245:45 *395:18 6.97118e-05
25 *245:60 *395:18 1.9415e-05
26 *248:18 *8795:C 7.4027e-05
27 *251:110 *8795:C 1.52945e-05
28 *261:83 *395:18 0.000140384
*RES
1 *8753:Y *395:18 14.21 
2 *395:18 *8754:B 3.79 
3 *395:18 *8795:C 8.81 
*END

*D_NET *396 0.0018863
*CONN
*I *8761:A1 I *D sky130_fd_sc_hd__o21ai_1
*I *8754:Y O *D sky130_fd_sc_hd__nand2_1
*CAP
1 *8761:A1 0.000317885
2 *8754:Y 0.000317885
3 *8761:A1 *8562:A 6.81702e-05
4 *8761:A1 *8757:A1 0
5 *8761:A1 *8761:A2 0.000132755
6 *8761:A1 *8761:B1 0.000121437
7 *8761:A1 *8785:D 5.12017e-06
8 *8761:A1 *8799:A2 0.000193254
9 *8761:A1 *8820:B1 0
10 *8761:A1 *8823:B1 0.000114492
11 *8761:A1 *759:12 0.000457828
12 *8586:C *8761:A1 0.000113797
13 *8754:B *8761:A1 1.1392e-05
14 *8785:C *8761:A1 3.2288e-05
*RES
1 *8754:Y *8761:A1 16.095 
*END

*D_NET *397 0.00198038
*CONN
*I *8798:A1 I *D sky130_fd_sc_hd__o211ai_1
*I *8757:A1 I *D sky130_fd_sc_hd__o211ai_1
*I *8755:Y O *D sky130_fd_sc_hd__nor3b_1
*CAP
1 *8798:A1 0.000119874
2 *8757:A1 0.000125879
3 *8755:Y 0.00014968
4 *397:8 0.000395433
5 *8757:A1 *8757:A2 0.000176503
6 *8757:A1 *8761:A2 8.8266e-05
7 *8757:A1 *8799:A2 0.000119631
8 *8757:A1 *398:6 1.60203e-05
9 *8798:A1 *8798:A2 7.23602e-05
10 *8798:A1 *8799:A2 0
11 *8798:A1 *8799:B1 8.65905e-05
12 *397:8 *8756:B 0.000158066
13 *397:8 *398:6 8.65961e-05
14 *8761:A1 *8757:A1 0
15 *258:40 *8798:A1 1.22762e-05
16 *258:73 *8798:A1 8.65905e-05
17 *260:73 *8757:A1 0.000201508
18 *260:73 *397:8 8.5108e-05
19 *261:18 *8798:A1 0
20 *261:83 *8798:A1 0
21 *261:176 *397:8 0
*RES
1 *8755:Y *397:8 4.825 
2 *397:8 *8757:A1 6.22 
3 *397:8 *8798:A1 8.285 
*END

*D_NET *398 0.00113098
*CONN
*I *8798:A2 I *D sky130_fd_sc_hd__o211ai_1
*I *8757:A2 I *D sky130_fd_sc_hd__o211ai_1
*I *8756:Y O *D sky130_fd_sc_hd__nor3b_1
*CAP
1 *8798:A2 4.19413e-05
2 *8757:A2 0.000240069
3 *8756:Y 8.27584e-05
4 *398:6 0.000364768
5 *8757:A2 *8761:A2 4.99619e-05
6 *8798:A2 *8799:A2 0
7 *8757:A1 *8757:A2 0.000176503
8 *8757:A1 *398:6 1.60203e-05
9 *8798:A1 *8798:A2 7.23602e-05
10 *397:8 *398:6 8.65961e-05
*RES
1 *8756:Y *398:6 2.74 
2 *398:6 *8757:A2 4.81 
3 *398:6 *8798:A2 6.47 
*END

*D_NET *399 0.000913628
*CONN
*I *8761:A2 I *D sky130_fd_sc_hd__o21ai_1
*I *8757:Y O *D sky130_fd_sc_hd__o211ai_1
*CAP
1 *8761:A2 0.000231015
2 *8757:Y 0.000231015
3 *8761:A2 *8761:B1 8.40269e-05
4 *8761:A2 *8768:A 4.66108e-05
5 *8761:A2 *8799:A2 4.99782e-05
6 *8757:A1 *8761:A2 8.8266e-05
7 *8757:A2 *8761:A2 4.99619e-05
8 *8761:A1 *8761:A2 0.000132755
*RES
1 *8757:Y *8761:A2 7.445 
*END

*D_NET *400 0.00126306
*CONN
*I *8760:C I *D sky130_fd_sc_hd__nand4b_1
*I *8796:A I *D sky130_fd_sc_hd__nand2_1
*I *8758:Y O *D sky130_fd_sc_hd__nor3_1
*CAP
1 *8760:C 0
2 *8796:A 0.000209685
3 *8758:Y 0.000131847
4 *400:12 0.000341532
5 *8796:A *8761:B1 4.53881e-05
6 *8796:A *8796:B 0.000204133
7 *8796:A *8799:A2 1.14169e-05
8 *8796:A *401:18 9.03508e-06
9 *400:12 *8758:C 5.83121e-06
10 *400:12 *8761:B1 4.26956e-06
11 *400:12 *8813:B1 6.95505e-05
12 *400:12 *596:59 5.23362e-05
13 *400:12 *596:72 0.000157325
14 *8758:A *400:12 1.19928e-05
15 *8760:B *400:12 8.7152e-06
*RES
1 *8758:Y *400:12 8.45 
2 *400:12 *8796:A 5.65 
3 *400:12 *8760:C 1.6 
*END

*D_NET *401 0.00161472
*CONN
*I *8796:B I *D sky130_fd_sc_hd__nand2_1
*I *8760:D I *D sky130_fd_sc_hd__nand4b_1
*I *8759:X O *D sky130_fd_sc_hd__and2b_1
*CAP
1 *8796:B 6.49345e-05
2 *8760:D 0
3 *8759:X 0.000254038
4 *401:18 0.000318972
5 *8796:B *8761:B1 0.000123319
6 *401:18 *8567:D 0.000122337
7 *401:18 *8772:D 5.97692e-05
8 *401:18 *8814:B1 3.04982e-05
9 *401:18 *412:29 5.30673e-05
10 *401:18 *597:50 0.000189893
11 *8760:A_N *8796:B 0.000138385
12 *8760:A_N *401:18 2.81948e-05
13 *8760:B *401:18 1.81431e-05
14 *8796:A *8796:B 0.000204133
15 *8796:A *401:18 9.03508e-06
*RES
1 *8759:X *401:18 11.27 
2 *401:18 *8760:D 1.6 
3 *401:18 *8796:B 4.555 
*END

*D_NET *402 0.00226346
*CONN
*I *8761:B1 I *D sky130_fd_sc_hd__o21ai_1
*I *8813:B1 I *D sky130_fd_sc_hd__o2bb2ai_1
*I *8760:Y O *D sky130_fd_sc_hd__nand4b_1
*CAP
1 *8761:B1 0.000246322
2 *8813:B1 0.000435693
3 *8760:Y 0
4 *402:6 0.000682015
5 *8761:B1 *8768:A 4.47125e-05
6 *8761:B1 *8799:A2 9.7744e-05
7 *8813:B1 *596:16 0.000151267
8 *8813:B1 *596:18 0.000122699
9 *8813:B1 *596:59 0
10 *8760:A_N *8761:B1 1.08758e-05
11 *8760:B *8761:B1 2.41368e-05
12 *8761:A1 *8761:B1 0.000121437
13 *8761:A2 *8761:B1 8.40269e-05
14 *8796:A *8761:B1 4.53881e-05
15 *8796:B *8761:B1 0.000123319
16 *9032:D *8813:B1 0
17 *400:12 *8761:B1 4.26956e-06
18 *400:12 *8813:B1 6.95505e-05
*RES
1 *8760:Y *402:6 3.6 
2 *402:6 *8813:B1 11.58 
3 *402:6 *8761:B1 9.405 
*END

*D_NET *403 0.00195768
*CONN
*I *8768:A I *D sky130_fd_sc_hd__nor2_1
*I *8761:Y O *D sky130_fd_sc_hd__o21ai_1
*CAP
1 *8768:A 0.000428182
2 *8761:Y 0.000428182
3 *8768:A *427:18 0.000412716
4 *8768:A *761:16 0.000455835
5 *8760:A_N *8768:A 0
6 *8761:A2 *8768:A 4.66108e-05
7 *8761:B1 *8768:A 4.47125e-05
8 *9178:A *8768:A 0.000141445
*RES
1 *8761:Y *8768:A 18.135 
*END

*D_NET *404 0.00389605
*CONN
*I *8766:C I *D sky130_fd_sc_hd__nand4b_2
*I *8781:A2 I *D sky130_fd_sc_hd__a21oi_1
*I *8764:C I *D sky130_fd_sc_hd__nand4b_2
*I *8791:B I *D sky130_fd_sc_hd__and2_1
*I *8762:Y O *D sky130_fd_sc_hd__nor2_1
*CAP
1 *8766:C 0.000386129
2 *8781:A2 0.000219906
3 *8764:C 2.51941e-05
4 *8791:B 6.39676e-05
5 *8762:Y 3.76904e-05
6 *404:25 0.000360889
7 *404:19 0.000593906
8 *404:6 0.000193646
9 *8764:C *8764:D 5.24893e-05
10 *8764:C *406:12 8.50369e-06
11 *8766:C *8766:D 0.000201667
12 *8766:C *8818:B1 4.61701e-06
13 *8766:C *408:10 2.49909e-05
14 *8766:C *600:25 0
15 *8781:A2 *8781:A1 5.83121e-06
16 *8781:A2 *8786:A3 2.75229e-05
17 *8791:B *8764:D 9.54837e-05
18 *8791:B *8791:A 0
19 *8791:B *8819:B1 2.16833e-05
20 *8791:B *598:56 9.61303e-05
21 *404:6 *8582:C_N 3.64998e-06
22 *404:6 *598:56 7.67415e-06
23 *404:19 *8764:D 0.0002459
24 *404:19 *8792:D 2.04724e-05
25 *404:25 *8764:D 0.000126857
26 *404:25 *8766:D 4.87465e-06
27 *404:25 *408:10 0.000339506
28 *8582:A *8781:A2 0.000154557
29 *8583:D *8781:A2 0
30 *8766:A_N *8766:C 1.08758e-05
31 *8766:B *8766:C 0.000114498
32 *8781:B1 *8781:A2 0
33 *248:57 *404:19 0.000290461
34 *266:12 *8781:A2 0.000156474
*RES
1 *8762:Y *404:6 2.05 
2 *404:6 *8791:B 3.61 
3 *404:6 *404:19 5.42 
4 *404:19 *404:25 5.57 
5 *404:25 *8764:C 2.41 
6 *404:25 *8781:A2 9.98 
7 *404:19 *8766:C 7.6899 
*END

*D_NET *405 0.00325829
*CONN
*I *8764:D I *D sky130_fd_sc_hd__nand4b_2
*I *8763:Y O *D sky130_fd_sc_hd__nor3b_1
*CAP
1 *8764:D 0.000876356
2 *8763:Y 0.000876356
3 *8764:D *8572:A 0.000124068
4 *8764:D *8792:D 0.00029586
5 *8764:D *8819:A2_N 5.05437e-05
6 *8764:D *8819:B1 2.86265e-06
7 *8764:D *406:12 6.02119e-05
8 *8764:D *408:10 1.70767e-05
9 *8764:C *8764:D 5.24893e-05
10 *8791:B *8764:D 9.54837e-05
11 *248:57 *8764:D 2.34345e-05
12 *250:44 *8764:D 1.08758e-05
13 *250:50 *8764:D 0.000155462
14 *255:10 *8764:D 0.000244456
15 *404:19 *8764:D 0.0002459
16 *404:25 *8764:D 0.000126857
*RES
1 *8763:Y *8764:D 22.485 
*END

*D_NET *406 0.00677826
*CONN
*I *8767:B I *D sky130_fd_sc_hd__nand3_1
*I *8802:B I *D sky130_fd_sc_hd__nand4_1
*I *8819:B1 I *D sky130_fd_sc_hd__o2bb2ai_1
*I *8764:Y O *D sky130_fd_sc_hd__nand4b_2
*CAP
1 *8767:B 4.08176e-05
2 *8802:B 0.000297574
3 *8819:B1 0.00101108
4 *8764:Y 8.20804e-05
5 *406:29 0.000810895
6 *406:12 0.00156567
7 *8767:B *8768:B 2.2143e-05
8 *8767:B *8779:C 2.04936e-05
9 *8802:B *8767:C 5.83373e-05
10 *8802:B *8787:B 2.54522e-05
11 *8802:B *8802:C 3.00381e-05
12 *8802:B *8802:D 0.000139561
13 *8819:B1 *8572:A 1.12578e-05
14 *8819:B1 *8573:B 3.66286e-05
15 *8819:B1 *8582:C_N 2.16917e-05
16 *8819:B1 *8819:A2_N 8.5841e-05
17 *8819:B1 *414:27 0.000183738
18 *8819:B1 *431:56 0
19 *8819:B1 *598:56 0.000123225
20 *8819:B1 *599:45 0.000238919
21 *8819:B1 *599:58 0.000153217
22 *406:12 *8786:A3 5.58436e-05
23 *406:12 *408:10 8.65961e-05
24 *406:29 *8779:A 4.66108e-05
25 *406:29 *8779:C 0.000380586
26 *406:29 *8786:A2 9.80032e-06
27 *406:29 *8800:B 8.01016e-06
28 *406:29 *414:27 2.86265e-06
29 *8583:A_N *406:29 0.000158965
30 *8583:B *8819:B1 5.16418e-05
31 *8583:B *406:12 6.28498e-05
32 *8762:A *8819:B1 0.000115028
33 *8764:C *406:12 8.50369e-06
34 *8764:D *8819:B1 2.86265e-06
35 *8764:D *406:12 6.02119e-05
36 *8787:A *8802:B 2.94826e-05
37 *8791:B *8819:B1 2.16833e-05
38 *8987:C *8802:B 0.000137894
39 *249:79 *406:12 0
40 *250:31 *8819:B1 0.000248261
41 *250:42 *8819:B1 2.15594e-05
42 *250:42 *406:12 3.67779e-05
43 *250:44 *406:12 1.19928e-05
44 *251:10 *8819:B1 6.94735e-06
45 *260:115 *8819:B1 8.15074e-05
46 *266:12 *406:12 1.07797e-05
47 *269:31 *8802:B 0.000162344
48 *393:29 *8802:B 0
*RES
1 *8764:Y *406:12 6.135 
2 *406:12 *8819:B1 19.125 
3 *406:12 *406:29 8.315 
4 *406:29 *8802:B 11.48 
5 *406:29 *8767:B 2.44 
*END

*D_NET *407 0.00138808
*CONN
*I *8766:D I *D sky130_fd_sc_hd__nand4b_2
*I *8765:Y O *D sky130_fd_sc_hd__nor3b_1
*CAP
1 *8766:D 0.000450634
2 *8765:Y 0.000450634
3 *8766:D *8765:B 1.34503e-05
4 *8766:D *8765:C_N 7.3151e-05
5 *8766:D *408:10 2.8185e-05
6 *8766:D *600:14 9.80943e-06
7 *8766:D *601:6 8.65905e-05
8 *8766:A_N *8766:D 6.90876e-05
9 *8766:C *8766:D 0.000201667
10 *404:25 *8766:D 4.87465e-06
*RES
1 *8765:Y *8766:D 9.65 
*END

*D_NET *408 0.00762513
*CONN
*I *8802:C I *D sky130_fd_sc_hd__nand4_1
*I *8820:B1 I *D sky130_fd_sc_hd__o2bb2ai_1
*I *8767:C I *D sky130_fd_sc_hd__nand3_1
*I *8766:Y O *D sky130_fd_sc_hd__nand4b_2
*CAP
1 *8802:C 0.000162732
2 *8820:B1 0.000585594
3 *8767:C 0.000103332
4 *8766:Y 0.000562681
5 *408:25 0.000860448
6 *408:10 0.000778134
7 *8802:C *8787:B 4.82863e-05
8 *8802:C *8987:D 0.000139245
9 *8802:C *761:16 0.000130714
10 *8820:B1 *8784:B 0.000113191
11 *8820:B1 *8785:D 0.000158475
12 *8820:B1 *8823:B1 0
13 *8820:B1 *8987:D 2.92496e-05
14 *8820:B1 *442:24 0
15 *8820:B1 *759:12 0
16 *8820:B1 *761:16 0.00139018
17 *408:10 *8786:A3 1.61831e-05
18 *408:10 *8787:D 0.000122337
19 *408:10 *8793:B 0.000271308
20 *408:10 *427:22 0.00011555
21 *408:25 *8802:D 8.8196e-05
22 *408:25 *8987:D 0.000194694
23 *408:25 *427:22 0.000155601
24 *8569:B *8820:B1 7.1866e-05
25 *8586:C *8820:B1 0
26 *8761:A1 *8820:B1 0
27 *8764:D *408:10 1.70767e-05
28 *8766:A_N *408:10 0
29 *8766:C *408:10 2.49909e-05
30 *8766:D *408:10 2.8185e-05
31 *8785:C *8820:B1 4.48373e-06
32 *8802:B *8767:C 5.83373e-05
33 *8802:B *8802:C 3.00381e-05
34 *8987:C *408:10 0.000276535
35 *8987:C *408:25 1.41165e-05
36 *250:44 *408:10 7.68414e-06
37 *250:69 *408:10 0.000230626
38 *252:22 *8802:C 0.00015806
39 *258:23 *8820:B1 9.30717e-05
40 *269:31 *8767:C 9.29751e-06
41 *269:31 *8802:C 5.28549e-05
42 *269:42 *8802:C 9.56791e-05
43 *393:29 *8767:C 0
44 *404:25 *408:10 0.000339506
45 *406:12 *408:10 8.65961e-05
*RES
1 *8766:Y *408:10 14.41 
2 *408:10 *8767:C 7.235 
3 *408:10 *408:25 5.21 
4 *408:25 *8820:B1 20.025 
5 *408:25 *8802:C 8.835 
*END

*D_NET *409 0.000173582
*CONN
*I *8768:B I *D sky130_fd_sc_hd__nor2_1
*I *8767:Y O *D sky130_fd_sc_hd__nand3_1
*CAP
1 *8768:B 6.13646e-05
2 *8767:Y 6.13646e-05
3 *8768:B *8779:C 2.87102e-05
4 *8767:B *8768:B 2.2143e-05
*RES
1 *8767:Y *8768:B 4.37 
*END

*D_NET *410 0.00136253
*CONN
*I *8787:B I *D sky130_fd_sc_hd__nand4_2
*I *8768:Y O *D sky130_fd_sc_hd__nor2_1
*CAP
1 *8787:B 0.000363591
2 *8768:Y 0.000363591
3 *8787:B *8788:B2 1.08758e-05
4 *8787:B *8802:D 2.4997e-05
5 *8787:B *427:18 9.30717e-05
6 *8787:B *761:16 0.0001077
7 *8787:A *8787:B 0.000125264
8 *8802:B *8787:B 2.54522e-05
9 *8802:C *8787:B 4.82863e-05
10 *249:96 *8787:B 2.05056e-05
11 *269:31 *8787:B 0.000179199
*RES
1 *8768:Y *8787:B 14.88 
*END

*D_NET *411 0.000456608
*CONN
*I *8770:D I *D sky130_fd_sc_hd__nand4b_2
*I *8769:Y O *D sky130_fd_sc_hd__nor3b_1
*CAP
1 *8770:D 0.000150282
2 *8769:Y 0.000150282
3 *8770:D *8759:B 0
4 *8770:D *452:42 8.52845e-05
5 *8750:A_N *8770:D 6.24082e-05
6 *8769:A *8770:D 4.1652e-06
7 *8770:B *8770:D 4.18603e-06
*RES
1 *8769:Y *8770:D 9.63 
*END

*D_NET *412 0.00613365
*CONN
*I *8800:A I *D sky130_fd_sc_hd__nand2_1
*I *8779:A I *D sky130_fd_sc_hd__and3_1
*I *8815:B1 I *D sky130_fd_sc_hd__o2bb2ai_1
*I *8770:Y O *D sky130_fd_sc_hd__nand4b_2
*CAP
1 *8800:A 0.00016365
2 *8779:A 4.19757e-05
3 *8815:B1 0.000428059
4 *8770:Y 0
5 *412:29 0.00135606
6 *412:4 0.00157849
7 *8779:A *8786:A2 5.81675e-05
8 *8779:A *8787:C 1.82476e-05
9 *8779:A *414:27 1.03323e-05
10 *8800:A *8779:C 4.47209e-05
11 *8800:A *8787:C 1.93765e-05
12 *8800:A *8800:B 8.23457e-05
13 *8800:A *442:24 4.99619e-05
14 *8815:B1 *8812:A2_N 0.000349592
15 *8815:B1 *431:38 6.28765e-05
16 *8815:B1 *452:56 4.40899e-05
17 *412:29 *8567:D 7.37606e-05
18 *412:29 *8759:B 0.000348107
19 *412:29 *8771:C_N 4.9968e-05
20 *412:29 *8787:C 5.08304e-06
21 *412:29 *596:59 1.65192e-05
22 *412:29 *596:72 5.98004e-06
23 *412:29 *597:38 8.53113e-06
24 *412:29 *597:42 0.000119756
25 *412:29 *597:50 5.09129e-05
26 *8574:C *412:29 0.000280826
27 *8750:A_N *8815:B1 0.000124007
28 *8750:A_N *412:29 1.36454e-05
29 *8751:A_N *412:29 3.69421e-05
30 *8770:A_N *8815:B1 8.65905e-05
31 *8770:B *412:29 1.37328e-05
32 *8770:C *412:29 0
33 *8812:B1 *8815:B1 7.02712e-05
34 *248:32 *412:29 0.00015997
35 *249:33 *412:29 0
36 *249:56 *8779:A 6.36438e-07
37 *249:56 *412:29 3.60648e-06
38 *250:8 *412:29 2.00134e-05
39 *250:31 *412:29 0.000103478
40 *260:92 *412:29 0.000122128
41 *260:115 *412:29 1.1561e-05
42 *393:29 *412:29 0
43 *401:18 *412:29 5.30673e-05
44 *406:29 *8779:A 4.66108e-05
*RES
1 *8770:Y *412:4 1.6 
2 *412:4 *8815:B1 13.07 
3 *412:4 *412:29 22.8575 
4 *412:29 *8779:A 4.7925 
5 *412:29 *8800:A 6.4725 
*END

*D_NET *413 0.00117757
*CONN
*I *8772:D I *D sky130_fd_sc_hd__nand4b_2
*I *8771:Y O *D sky130_fd_sc_hd__nor3b_1
*CAP
1 *8772:D 0.00023241
2 *8771:Y 0.00023241
3 *8772:D *8814:B1 0.000458786
4 *8772:D *597:50 1.82476e-05
5 *250:31 *8772:D 0.000175952
6 *401:18 *8772:D 5.97692e-05
*RES
1 *8771:Y *8772:D 13.11 
*END

*D_NET *414 0.0046708
*CONN
*I *8800:B I *D sky130_fd_sc_hd__nand2_1
*I *8779:B I *D sky130_fd_sc_hd__and3_1
*I *8814:B1 I *D sky130_fd_sc_hd__o2bb2ai_1
*I *8772:Y O *D sky130_fd_sc_hd__nand4b_2
*CAP
1 *8800:B 8.73578e-05
2 *8779:B 0
3 *8814:B1 0.000502255
4 *8772:Y 7.18828e-05
5 *414:27 0.000495044
6 *414:8 0.000981825
7 *8800:B *8779:C 0.000108212
8 *8814:B1 *8769:B 5.16418e-05
9 *8814:B1 *8771:C_N 0
10 *8814:B1 *8814:A1_N 0
11 *8814:B1 *8814:A2_N 4.5675e-05
12 *8814:B1 *431:12 8.53113e-06
13 *414:27 *8786:A2 2.16917e-05
14 *8574:C *414:27 0.000192125
15 *8574:D *414:8 0.000196842
16 *8583:A_N *8800:B 2.61183e-06
17 *8750:A_N *8814:B1 3.81318e-05
18 *8751:C *8814:B1 0.00013521
19 *8769:A *8814:B1 0.000171728
20 *8770:C *8814:B1 0.000198118
21 *8772:D *8814:B1 0.000458786
22 *8779:A *414:27 1.03323e-05
23 *8800:A *8800:B 8.23457e-05
24 *8819:B1 *414:27 0.000183738
25 *250:31 *8814:B1 2.23407e-05
26 *250:31 *414:27 0.00013999
27 *251:10 *414:27 0.000217652
28 *251:12 *8814:B1 2.61042e-05
29 *251:12 *414:27 1.01155e-05
30 *251:14 *8814:B1 7.32138e-05
31 *251:16 *8814:B1 1.1008e-05
32 *251:74 *414:8 8.49205e-05
33 *401:18 *8814:B1 3.04982e-05
34 *406:29 *8800:B 8.01016e-06
35 *406:29 *414:27 2.86265e-06
*RES
1 *8772:Y *414:8 5.43 
2 *414:8 *8814:B1 14.985 
3 *414:8 *414:27 10.07 
4 *414:27 *8779:B 1.6 
5 *414:27 *8800:B 3.61 
*END

*D_NET *415 0.00170828
*CONN
*I *8776:A2 I *D sky130_fd_sc_hd__o21ai_1
*I *8773:X O *D sky130_fd_sc_hd__or2b_1
*CAP
1 *8776:A2 0.000425329
2 *8773:X 0.000425329
3 *8776:A2 *8753:C 9.50342e-06
4 *8776:A2 *8832:B 5.30673e-05
5 *8776:A2 *8833:A2_N 6.28498e-05
6 *8776:A2 *8833:B2 3.47837e-05
7 *8776:A2 *416:17 8.73147e-06
8 *8776:A2 *417:8 7.60965e-05
9 *8776:A2 *430:26 0
10 *8776:A2 *451:34 6.00252e-05
11 *8776:A2 *452:14 0
12 *8775:A *8776:A2 7.20869e-05
13 *260:18 *8776:A2 0.000480481
*RES
1 *8773:X *8776:A2 15.6 
*END

*D_NET *416 0.00252851
*CONN
*I *8996:B1 I *D sky130_fd_sc_hd__o2bb2ai_1
*I *8834:B1 I *D sky130_fd_sc_hd__o2bb2ai_1
*I *8775:B I *D sky130_fd_sc_hd__nand3_1
*I *8774:Y O *D sky130_fd_sc_hd__inv_2
*CAP
1 *8996:B1 0.000177665
2 *8834:B1 0.000102204
3 *8775:B 4.94897e-05
4 *8774:Y 0.000223924
5 *416:17 0.000434146
6 *416:6 0.000427691
7 *8834:B1 *9040:CLK 3.00381e-05
8 *8996:B1 *430:22 0
9 *8996:B1 *430:26 0
10 *8996:B1 *451:19 4.04278e-05
11 *8996:B1 *451:32 9.61414e-05
12 *8996:B1 *719:10 5.21458e-05
13 *416:6 *8774:A 4.99619e-05
14 *416:6 *9080:CLK 0.000154828
15 *416:17 *430:26 0
16 *416:17 *451:32 0.000327478
17 *416:17 *451:34 2.85364e-05
18 *8775:A *416:17 0.000184059
19 *8776:A2 *416:17 8.73147e-06
20 *9040:D *8834:B1 6.18016e-05
21 *260:18 *8775:B 3.90609e-05
22 *260:18 *416:6 4.01778e-05
*RES
1 *8774:Y *416:6 5.5 
2 *416:6 *8775:B 2.395 
3 *416:6 *416:17 6.185 
4 *416:17 *8834:B1 5.445 
5 *416:17 *8996:B1 7.05 
*END

*D_NET *417 0.00109746
*CONN
*I *8776:B1 I *D sky130_fd_sc_hd__o21ai_1
*I *8832:B I *D sky130_fd_sc_hd__or3b_1
*I *8775:Y O *D sky130_fd_sc_hd__nand3_1
*CAP
1 *8776:B1 0
2 *8832:B 0.000208163
3 *8775:Y 3.93524e-05
4 *417:8 0.000247515
5 *8832:B *8776:A1 0.00012657
6 *8832:B *8833:B1 0
7 *8832:B *418:10 4.16445e-05
8 *8832:B *430:26 9.44339e-05
9 *8832:B *430:28 0
10 *8832:B *718:10 9.04415e-05
11 *417:8 *8776:A1 7.66083e-05
12 *8776:A2 *8832:B 5.30673e-05
13 *8776:A2 *417:8 7.60965e-05
14 *260:18 *417:8 4.35648e-05
*RES
1 *8775:Y *417:8 3.1 
2 *417:8 *8832:B 10.685 
3 *417:8 *8776:B1 1.6 
*END

*D_NET *418 0.0026799
*CONN
*I *8801:C I *D sky130_fd_sc_hd__nand3_1
*I *8778:A I *D sky130_fd_sc_hd__nand4_1
*I *8776:Y O *D sky130_fd_sc_hd__o21ai_1
*CAP
1 *8801:C 1.83028e-05
2 *8778:A 0.000150167
3 *8776:Y 0.000847453
4 *418:10 0.00101592
5 *8778:A *8778:B 1.16578e-05
6 *8778:A *441:12 0.000116158
7 *8801:C *8778:B 4.66108e-05
8 *8801:C *443:6 1.56428e-05
9 *418:10 *8776:A1 7.60965e-05
10 *418:10 *8832:C_N 0
11 *418:10 *441:12 0.000304459
12 *8580:C *8778:A 5.4155e-06
13 *8801:A *8778:A 0
14 *8832:B *418:10 4.16445e-05
15 *263:14 *8778:A 3.03684e-05
*RES
1 *8776:Y *418:10 14.97 
2 *418:10 *8778:A 6.495 
3 *418:10 *8801:C 4.05 
*END

*D_NET *419 0.00321121
*CONN
*I *8832:C_N I *D sky130_fd_sc_hd__or3b_1
*I *8801:B I *D sky130_fd_sc_hd__nand3_1
*I *8778:B I *D sky130_fd_sc_hd__nand4_1
*I *8777:X O *D sky130_fd_sc_hd__and3_1
*CAP
1 *8832:C_N 0.000212603
2 *8801:B 0
3 *8778:B 0.0001802
4 *8777:X 0.000313036
5 *419:14 0.000373026
6 *419:10 0.000718465
7 *8778:B *441:12 9.37731e-05
8 *8778:B *443:6 8.73389e-06
9 *419:10 *8580:A 2.75538e-05
10 *419:10 *8783:D 0.000138551
11 *419:10 *591:22 0
12 *419:10 *718:10 0
13 *8778:A *8778:B 1.16578e-05
14 *8797:A *419:10 3.67779e-05
15 *8801:A *419:10 0
16 *8801:A *419:14 8.65905e-05
17 *8801:C *8778:B 4.66108e-05
18 *8832:A *8832:C_N 0.000196381
19 *244:34 *419:10 0.000137571
20 *246:16 *419:10 2.30292e-05
21 *246:33 *419:10 1.16578e-05
22 *258:40 *419:10 0
23 *261:83 *419:10 3.17967e-05
24 *261:97 *8832:C_N 0.000126751
25 *261:97 *419:10 0.000297789
26 *263:14 *8778:B 7.57683e-05
27 *395:18 *419:10 6.28843e-05
28 *418:10 *8832:C_N 0
*RES
1 *8777:X *419:10 11.295 
2 *419:10 *419:14 4.865 
3 *419:14 *8778:B 8.66 
4 *419:14 *8801:B 1.6 
5 *419:10 *8832:C_N 8.085 
*END

*D_NET *420 0.00207373
*CONN
*I *8779:C I *D sky130_fd_sc_hd__and3_1
*I *8778:Y O *D sky130_fd_sc_hd__nand4_1
*CAP
1 *8779:C 0.000386893
2 *8778:Y 0.000386893
3 *8779:C *442:24 0.000520846
4 *8569:B *8779:C 0.00019637
5 *8767:B *8779:C 2.04936e-05
6 *8768:B *8779:C 2.87102e-05
7 *8800:A *8779:C 4.47209e-05
8 *8800:B *8779:C 0.000108212
9 *406:29 *8779:C 0.000380586
*RES
1 *8778:Y *8779:C 13.79 
*END

*D_NET *421 0.00107462
*CONN
*I *8787:C I *D sky130_fd_sc_hd__nand4_2
*I *8779:X O *D sky130_fd_sc_hd__and3_1
*CAP
1 *8787:C 0.000206324
2 *8779:X 0.000206324
3 *8787:C *8786:A2 0
4 *8787:C *8786:B1 0.000201123
5 *8787:C *8793:C 1.08758e-05
6 *8779:A *8787:C 1.82476e-05
7 *8800:A *8787:C 1.93765e-05
8 *249:96 *8787:C 1.56428e-05
9 *393:29 *8787:C 0.000262861
10 *393:48 *8787:C 0.000128763
11 *412:29 *8787:C 5.08304e-06
*RES
1 *8779:X *8787:C 12.345 
*END

*D_NET *422 0.000742206
*CONN
*I *8786:A2 I *D sky130_fd_sc_hd__o311a_1
*I *8780:Y O *D sky130_fd_sc_hd__nand2_1
*CAP
1 *8786:A2 0.000140006
2 *8780:Y 0.000140006
3 *8786:A2 *8786:B1 4.18603e-06
4 *8574:C *8786:A2 0.000120655
5 *8583:A_N *8786:A2 6.97202e-05
6 *8779:A *8786:A2 5.81675e-05
7 *8787:C *8786:A2 0
8 *249:56 *8786:A2 1.15688e-05
9 *249:79 *8786:A2 0.000156901
10 *249:96 *8786:A2 9.50342e-06
11 *406:29 *8786:A2 9.80032e-06
12 *414:27 *8786:A2 2.16917e-05
*RES
1 *8780:Y *8786:A2 10.83 
*END

*D_NET *423 0.0016918
*CONN
*I *8786:A3 I *D sky130_fd_sc_hd__o311a_1
*I *8781:Y O *D sky130_fd_sc_hd__a21oi_1
*CAP
1 *8786:A3 0.00032136
2 *8781:Y 0.00032136
3 *8786:A3 *8781:A1 1.79649e-05
4 *8786:A3 *8793:B 0.000319917
5 *8786:A3 *8794:B 8.68724e-05
6 *8786:A3 *427:22 1.37328e-05
7 *8781:A2 *8786:A3 2.75229e-05
8 *8781:B1 *8786:A3 4.6368e-06
9 *9122:D *8786:A3 0.000237709
10 *250:44 *8786:A3 4.82863e-05
11 *250:112 *8786:A3 0.000158072
12 *266:12 *8786:A3 6.23375e-05
13 *406:12 *8786:A3 5.58436e-05
14 *408:10 *8786:A3 1.61831e-05
*RES
1 *8781:Y *8786:A3 16.62 
*END

*D_NET *424 0.000513193
*CONN
*I *8783:D I *D sky130_fd_sc_hd__nand4_2
*I *8782:Y O *D sky130_fd_sc_hd__nor2_1
*CAP
1 *8783:D 0.000107194
2 *8782:Y 0.000107194
3 *8783:D *8580:A 7.3664e-05
4 *8783:D *591:31 8.65905e-05
5 *419:10 *8783:D 0.000138551
*RES
1 *8782:Y *8783:D 9.63 
*END

*D_NET *425 0.00707802
*CONN
*I *8992:B1 I *D sky130_fd_sc_hd__o311ai_1
*I *8793:C I *D sky130_fd_sc_hd__nand4_1
*I *8786:B1 I *D sky130_fd_sc_hd__o311a_1
*I *8831:B1 I *D sky130_fd_sc_hd__o2bb2ai_1
*I *8783:Y O *D sky130_fd_sc_hd__nand4_2
*CAP
1 *8992:B1 0.000142102
2 *8793:C 0.000221149
3 *8786:B1 0.000102851
4 *8831:B1 8.14975e-05
5 *8783:Y 0.000246693
6 *425:33 0.000573442
7 *425:29 0.00185187
8 *425:14 0.00178851
9 *8786:B1 *8787:D 5.42473e-05
10 *8786:B1 *8793:B 4.82863e-05
11 *8831:B1 *8831:A2_N 4.80285e-05
12 *8831:B1 *592:6 6.00111e-05
13 *425:14 *8753:D 4.21973e-05
14 *425:14 *8773:B_N 4.82919e-05
15 *425:14 *8783:A 9.53428e-06
16 *425:14 *430:28 0.0002088
17 *425:14 *430:36 0.000120186
18 *425:14 *592:19 0.000174402
19 *425:14 *593:16 0
20 *425:29 *571:28 0.000529128
21 *425:29 *592:19 8.41703e-06
22 *8588:A1 *8992:B1 4.66108e-05
23 *8588:A2 *8786:B1 0
24 *8588:A2 *8793:C 0
25 *8786:A2 *8786:B1 4.18603e-06
26 *8787:A *8992:B1 3.86529e-05
27 *8787:C *8786:B1 0.000201123
28 *8787:C *8793:C 1.08758e-05
29 *8987:C *8992:B1 1.13002e-05
30 *8992:A1 *8992:B1 5.84991e-05
31 *8992:A3 *8992:B1 4.66108e-05
32 *9038:D *8831:B1 8.40269e-05
33 *249:96 *8786:B1 0
34 *249:96 *8793:C 4.14782e-05
35 *249:96 *8992:B1 3.54936e-05
36 *250:112 *8786:B1 2.93678e-05
37 *259:16 *425:14 1.85674e-05
38 *266:12 *8793:C 6.71882e-05
39 *393:48 *8786:B1 4.36573e-06
40 *393:48 *8793:C 2.00272e-05
*RES
1 *8783:Y *425:14 9.825 
2 *425:14 *8831:B1 5.43 
3 *425:14 *425:29 3.50903 
4 *425:29 *425:33 0.8876 
5 *425:33 *8786:B1 6.5775 
6 *425:33 *8793:C 6.9675 
7 *425:29 *8992:B1 6.7625 
*END

*D_NET *426 0.000819969
*CONN
*I *8785:D I *D sky130_fd_sc_hd__nand4_2
*I *8784:Y O *D sky130_fd_sc_hd__nor2_1
*CAP
1 *8785:D 0.000193557
2 *8784:Y 0.000193557
3 *8785:D *8562:A 0.000175686
4 *8785:D *8823:B1 3.80792e-05
5 *8761:A1 *8785:D 5.12017e-06
6 *8785:C *8785:D 5.53249e-06
7 *8820:B1 *8785:D 0.000158475
8 *260:73 *8785:D 4.99619e-05
*RES
1 *8784:Y *8785:D 11.325 
*END

*D_NET *427 0.00981177
*CONN
*I *8823:B1 I *D sky130_fd_sc_hd__o2bb2ai_1
*I *8987:D I *D sky130_fd_sc_hd__nand4_1
*I *8793:B I *D sky130_fd_sc_hd__nand4_1
*I *8786:C1 I *D sky130_fd_sc_hd__o311a_1
*I *8785:Y O *D sky130_fd_sc_hd__nand4_2
*CAP
1 *8823:B1 0.00038827
2 *8987:D 0.000249401
3 *8793:B 0.000152595
4 *8786:C1 0
5 *8785:Y 5.8263e-05
6 *427:22 0.000272452
7 *427:18 0.000992596
8 *427:6 0.00106987
9 *8793:B *8787:D 1.52776e-05
10 *8793:B *8794:B 9.50342e-06
11 *8823:B1 *8562:A 0.000134249
12 *8823:B1 *8784:B 7.1635e-05
13 *8823:B1 *8823:A2_N 6.52265e-05
14 *8823:B1 *430:56 0.000124895
15 *8823:B1 *430:64 0.000619391
16 *8823:B1 *452:34 4.82919e-05
17 *8823:B1 *452:36 0.000468152
18 *8823:B1 *759:12 0.000331921
19 *8987:D *8802:D 8.73389e-06
20 *8987:D *8992:C1 0.000359858
21 *8987:D *442:24 4.07381e-05
22 *8987:D *761:16 2.05583e-05
23 *427:6 *8585:C_N 8.23457e-05
24 *427:18 *8585:C_N 0.00020166
25 *427:18 *603:48 9.80032e-06
26 *427:18 *761:16 0
27 *8569:B *8987:D 3.09233e-05
28 *8585:A *427:18 0.000122337
29 *8588:A2 *8793:B 3.57924e-05
30 *8588:A3 *8987:D 5.16348e-05
31 *8760:A_N *427:18 0
32 *8761:A1 *8823:B1 0.000114492
33 *8768:A *427:18 0.000412716
34 *8785:C *8823:B1 0
35 *8785:D *8823:B1 3.80792e-05
36 *8786:A3 *8793:B 0.000319917
37 *8786:A3 *427:22 1.37328e-05
38 *8786:B1 *8793:B 4.82863e-05
39 *8787:B *427:18 9.30717e-05
40 *8802:C *8987:D 0.000139245
41 *8820:B1 *8823:B1 0
42 *8820:B1 *8987:D 2.92496e-05
43 *9178:A *427:18 0.000189174
44 *249:33 *427:18 0
45 *249:96 *8793:B 6.02202e-05
46 *250:112 *8793:B 2.07305e-05
47 *250:112 *8987:D 0.000221235
48 *250:112 *427:22 0.000455319
49 *263:25 *8987:D 0.000119756
50 *269:10 *427:18 0.000494367
51 *269:31 *427:18 0.000136877
52 *269:42 *8987:D 0.00013178
53 *408:10 *8793:B 0.000271308
54 *408:10 *427:22 0.00011555
55 *408:25 *8987:D 0.000194694
56 *408:25 *427:22 0.000155601
*RES
1 *8785:Y *427:6 2.395 
2 *427:6 *427:18 17.98 
3 *427:18 *427:22 4.605 
4 *427:22 *8786:C1 1.6 
5 *427:22 *8793:B 11.135 
6 *427:18 *8987:D 13.355 
7 *427:6 *8823:B1 19.67 
*END

*D_NET *428 0.000572588
*CONN
*I *8787:D I *D sky130_fd_sc_hd__nand4_2
*I *8786:X O *D sky130_fd_sc_hd__o311a_1
*CAP
1 *8787:D 0.000139558
2 *8786:X 0.000139558
3 *8588:A2 *8787:D 3.09233e-05
4 *8786:B1 *8787:D 5.42473e-05
5 *8793:B *8787:D 1.52776e-05
6 *249:96 *8787:D 7.06865e-05
7 *408:10 *8787:D 0.000122337
*RES
1 *8786:X *8787:D 9.975 
*END

*D_NET *429 0.00201056
*CONN
*I *8788:B2 I *D sky130_fd_sc_hd__o22ai_4
*I *8787:Y O *D sky130_fd_sc_hd__nand4_2
*CAP
1 *8788:B2 0.00027238
2 *8787:Y 0.00027238
3 *8788:B2 *8993:A1 5.55371e-05
4 *8752:B1 *8788:B2 5.4003e-05
5 *8787:B *8788:B2 1.08758e-05
6 *249:96 *8788:B2 0.000312754
7 *249:105 *8788:B2 6.45236e-05
8 *249:135 *8788:B2 0.000263497
9 *393:48 *8788:B2 0.000530328
10 *393:61 *8788:B2 0.000174279
*RES
1 *8787:Y *8788:B2 16.425 
*END

*D_NET *430 0.0120059
*CONN
*I *8996:A1_N I *D sky130_fd_sc_hd__o2bb2ai_1
*I *8834:A1_N I *D sky130_fd_sc_hd__o2bb2ai_1
*I *8831:A1_N I *D sky130_fd_sc_hd__o2bb2ai_1
*I *8833:A1_N I *D sky130_fd_sc_hd__o2bb2ai_1
*I *8828:A1_N I *D sky130_fd_sc_hd__o2bb2ai_1
*I *8826:A1_N I *D sky130_fd_sc_hd__o2bb2ai_1
*I *8823:A1_N I *D sky130_fd_sc_hd__o2bb2ai_1
*I *8820:A1_N I *D sky130_fd_sc_hd__o2bb2ai_1
*I *8789:A I *D sky130_fd_sc_hd__buf_2
*I *8788:Y O *D sky130_fd_sc_hd__o22ai_4
*CAP
1 *8996:A1_N 3.86613e-05
2 *8834:A1_N 0
3 *8831:A1_N 0
4 *8833:A1_N 0
5 *8828:A1_N 5.2586e-05
6 *8826:A1_N 0
7 *8823:A1_N 0
8 *8820:A1_N 0
9 *8789:A 0.000287405
10 *8788:Y 0.000604082
11 *430:64 0.000640568
12 *430:56 0.000628388
13 *430:46 0.00055601
14 *430:36 0.000820785
15 *430:28 0.000579587
16 *430:26 0.000529743
17 *430:22 0.000592198
18 *430:18 0.000797373
19 *8789:A *431:12 5.05437e-05
20 *8789:A *452:40 0.000278179
21 *8789:A *597:12 0.00019637
22 *8828:A1_N *455:10 7.66083e-05
23 *8996:A1_N *451:6 3.09179e-05
24 *430:18 *8806:C 2.75145e-05
25 *430:18 *8810:A 3.89193e-05
26 *430:18 *8810:C 5.10022e-05
27 *430:18 *8995:B1 0.000526922
28 *430:18 *445:18 1.91597e-05
29 *430:18 *446:18 0.000120407
30 *430:18 *451:6 0.000421895
31 *430:18 *620:72 1.41165e-05
32 *430:22 *9132:CLK 0
33 *430:22 *451:19 0
34 *430:22 *718:49 0
35 *430:26 *592:19 0
36 *430:26 *592:47 0
37 *430:26 *718:10 0
38 *430:26 *718:49 0
39 *430:28 *8833:B1 7.4027e-05
40 *430:28 *718:10 0
41 *430:36 *8753:D 2.4997e-05
42 *430:36 *8828:A2_N 2.87867e-05
43 *430:36 *452:14 0
44 *430:36 *452:24 0
45 *430:36 *590:27 0.000157269
46 *430:36 *592:19 2.25161e-05
47 *430:36 *718:10 0
48 *430:46 *8755:B 2.42236e-05
49 *430:46 *8756:B 0
50 *430:46 *8827:B 0
51 *430:46 *455:10 0.0001249
52 *430:46 *588:21 0
53 *430:46 *588:32 0
54 *430:46 *718:10 0
55 *430:56 *8756:B 0.00012657
56 *430:56 *8823:A2_N 8.8266e-05
57 *430:56 *718:10 0.000112097
58 *430:64 *8820:A2_N 0.000161829
59 *430:64 *452:36 0.000117336
60 *430:64 *452:40 0.000201503
61 *430:64 *602:16 5.5201e-05
62 *430:64 *602:40 0.000122325
63 *8578:A *8828:A1_N 0
64 *8578:A *430:46 5.83121e-06
65 *8775:A *430:26 0
66 *8776:A2 *430:26 0
67 *8804:D *430:18 8.35068e-05
68 *8810:B *430:18 0.00013031
69 *8823:B1 *430:56 0.000124895
70 *8823:B1 *430:64 0.000619391
71 *8824:A *8828:A1_N 0
72 *8832:B *430:26 9.44339e-05
73 *8832:B *430:28 0
74 *8996:B1 *430:22 0
75 *8996:B1 *430:26 0
76 *189:20 *430:18 0.000194585
77 *189:33 *430:18 0.000292802
78 *246:12 *430:36 0.000247567
79 *259:16 *430:36 0
80 *260:18 *430:36 0
81 *260:26 *430:36 0.000158081
82 *260:45 *430:36 0
83 *260:49 *430:36 0
84 *260:49 *430:46 0.000183043
85 *261:18 *430:56 4.82919e-05
86 *261:176 *430:46 7.23533e-05
87 *416:17 *430:26 0
88 *425:14 *430:28 0.0002088
89 *425:14 *430:36 0.000120186
*RES
1 *8788:Y *430:18 17.845 
2 *430:18 *430:22 4.4 
3 *430:22 *430:26 7.11 
4 *430:26 *430:28 2.4 
5 *430:28 *430:36 12.86 
6 *430:36 *430:46 9.52 
7 *430:46 *430:56 10.06 
8 *430:56 *430:64 10.245 
9 *430:64 *8789:A 7.915 
10 *430:64 *8820:A1_N 1.6 
11 *430:56 *8823:A1_N 1.6 
12 *430:46 *8826:A1_N 1.6 
13 *430:36 *8828:A1_N 2.755 
14 *430:28 *8833:A1_N 3.6 
15 *430:26 *8831:A1_N 3.6 
16 *430:22 *8834:A1_N 3.6 
17 *430:18 *8996:A1_N 2.395 
*END

*D_NET *431 0.0102729
*CONN
*I *8813:A1_N I *D sky130_fd_sc_hd__o2bb2ai_1
*I *8814:A1_N I *D sky130_fd_sc_hd__o2bb2ai_1
*I *8812:A1_N I *D sky130_fd_sc_hd__o2bb2ai_1
*I *8815:A1_N I *D sky130_fd_sc_hd__o2bb2ai_1
*I *8818:A1_N I *D sky130_fd_sc_hd__o2bb2ai_1
*I *8819:A1_N I *D sky130_fd_sc_hd__o2bb2ai_1
*I *8830:A2_N I *D sky130_fd_sc_hd__o2bb2ai_1
*I *8817:A2_N I *D sky130_fd_sc_hd__o2bb2ai_1
*I *8822:A2_N I *D sky130_fd_sc_hd__o2bb2ai_1
*I *8809:A2_N I *D sky130_fd_sc_hd__o2bb2ai_1
*I *8789:X O *D sky130_fd_sc_hd__buf_2
*CAP
1 *8813:A1_N 0
2 *8814:A1_N 3.64564e-05
3 *8812:A1_N 0
4 *8815:A1_N 0
5 *8818:A1_N 0.000185858
6 *8819:A1_N 0
7 *8830:A2_N 0
8 *8817:A2_N 0.000171243
9 *8822:A2_N 0.000184937
10 *8809:A2_N 9.99087e-05
11 *8789:X 0.000191678
12 *431:90 0.000342368
13 *431:58 0.000434573
14 *431:56 0.000847931
15 *431:46 0.000527078
16 *431:44 0.000578078
17 *431:38 0.000513464
18 *431:30 0.000836826
19 *431:20 0.00104021
20 *431:12 0.000479854
21 *8809:A2_N *8822:A1_N 4.82863e-05
22 *8814:A1_N *8814:A2_N 2.68007e-05
23 *8814:A1_N *452:48 1.61831e-05
24 *8814:A1_N *715:35 0
25 *8817:A2_N *8817:A1_N 0.000282966
26 *8817:A2_N *8817:B2 5.83121e-06
27 *8817:A2_N *8822:B2 4.9968e-05
28 *8817:A2_N *735:121 1.52945e-05
29 *8818:A1_N *8818:B2 0
30 *8818:A1_N *452:62 0
31 *8818:A1_N *599:35 2.75229e-05
32 *8818:A1_N *601:10 0
33 *8818:A1_N *715:18 4.92412e-05
34 *8822:A2_N *8822:A1_N 9.045e-05
35 *8822:A2_N *8822:B1 0.000124895
36 *431:12 *8769:B 4.5783e-05
37 *431:12 *8771:C_N 0
38 *431:12 *8814:A2_N 3.64998e-06
39 *431:12 *597:12 2.59926e-05
40 *431:20 *8769:B 8.65905e-05
41 *431:20 *715:35 0
42 *431:30 *8812:A2_N 4.82863e-05
43 *431:30 *9025:RESET_B 4.24575e-05
44 *431:30 *452:48 4.7672e-05
45 *431:30 *452:56 3.05238e-05
46 *431:30 *715:22 0
47 *431:30 *715:35 0.000222122
48 *431:30 *735:27 0
49 *431:30 *735:41 0
50 *431:38 *8815:A2_N 0.000124895
51 *431:38 *452:56 0
52 *431:38 *587:29 0.000163199
53 *431:38 *715:22 0
54 *431:44 *452:62 0
55 *431:44 *587:29 0.0001249
56 *431:44 *715:18 0.000538172
57 *431:44 *715:22 0.000185405
58 *431:56 *8819:A2_N 9.53428e-06
59 *431:56 *9031:RESET_B 0.000128103
60 *431:56 *9037:RESET_B 2.20753e-05
61 *431:58 *8822:B2 0
62 *431:58 *446:30 0.00014969
63 *431:58 *735:80 0
64 *431:90 *8817:A1_N 4.82863e-05
65 *431:90 *8822:B2 0.000131808
66 *431:90 *446:30 3.40138e-05
67 *8789:A *431:12 5.05437e-05
68 *8814:B1 *8814:A1_N 0
69 *8814:B1 *431:12 8.53113e-06
70 *8815:B1 *431:38 6.28765e-05
71 *8819:B1 *431:56 0
72 *9024:D *8809:A2_N 4.75576e-05
73 *9024:D *431:58 4.43871e-06
74 *9025:D *431:30 5.91677e-05
75 *9027:D *431:12 0
76 *9027:D *431:20 0.000116853
77 *9028:D *431:44 4.70343e-05
78 *9029:D *8817:A2_N 5.53249e-06
79 *9030:D *8818:A1_N 7.00889e-06
80 *9031:D *8818:A1_N 0.000141599
81 *9031:D *431:56 2.65814e-06
82 *9033:D *8809:A2_N 0
83 *9037:D *431:56 3.64998e-06
84 *9037:D *431:90 0.000294421
*RES
1 *8789:X *431:12 8.465 
2 *431:12 *431:20 8.935 
3 *431:20 *431:30 14.71 
4 *431:30 *431:38 7.375 
5 *431:38 *431:44 11.405 
6 *431:44 *431:46 2 
7 *431:46 *431:56 9.14 
8 *431:56 *431:58 3.165 
9 *431:58 *8809:A2_N 5.175 
10 *431:58 *8822:A2_N 7.08 
11 *431:56 *431:90 7.19 
12 *431:90 *8817:A2_N 8.84 
13 *431:90 *8830:A2_N 1.6 
14 *431:46 *8819:A1_N 1.6 
15 *431:44 *8818:A1_N 7.35 
16 *431:38 *8815:A1_N 1.6 
17 *431:30 *8812:A1_N 1.6 
18 *431:20 *8814:A1_N 2.77 
19 *431:12 *8813:A1_N 1.6 
*END

*D_NET *432 0.000226448
*CONN
*I *8794:A I *D sky130_fd_sc_hd__nor2_2
*I *8790:Y O *D sky130_fd_sc_hd__o31ai_1
*CAP
1 *8794:A 3.85856e-05
2 *8790:Y 3.85856e-05
3 *8794:A *8794:B 0.000102594
4 *8790:A1 *8794:A 0
5 *243:12 *8794:A 4.66826e-05
*RES
1 *8790:Y *8794:A 4.355 
*END

*D_NET *433 0.00120877
*CONN
*I *8792:D I *D sky130_fd_sc_hd__nand4b_1
*I *8791:X O *D sky130_fd_sc_hd__and2_1
*CAP
1 *8792:D 0.000246271
2 *8791:X 0.000246271
3 *8764:D *8792:D 0.00029586
4 *8792:B *8792:D 2.34423e-05
5 *8792:C *8792:D 0.000194732
6 *248:76 *8792:D 0.000118063
7 *255:10 *8792:D 6.36578e-05
8 *404:19 *8792:D 2.04724e-05
*RES
1 *8791:X *8792:D 13.365 
*END

*D_NET *434 0.00308887
*CONN
*I *8793:D I *D sky130_fd_sc_hd__nand4_1
*I *8818:B1 I *D sky130_fd_sc_hd__o2bb2ai_1
*I *8792:Y O *D sky130_fd_sc_hd__nand4b_1
*CAP
1 *8793:D 0.000333929
2 *8818:B1 0.000705799
3 *8792:Y 0
4 *434:4 0.00103973
5 *8793:D *8582:B 2.32293e-05
6 *8793:D *8582:C_N 0.000226769
7 *8793:D *599:91 2.24513e-06
8 *8818:B1 *8568:C 3.64402e-05
9 *8818:B1 *8568:D 0.000240202
10 *8818:B1 *8818:A2_N 5.85254e-05
11 *8818:B1 *599:91 5.02845e-06
12 *8818:B1 *600:25 0
13 *8766:A_N *8818:B1 0.000197208
14 *8766:B *8818:B1 0.000128553
15 *8766:C *8818:B1 4.61701e-06
16 *266:12 *8793:D 8.65961e-05
*RES
1 *8792:Y *434:4 1.6 
2 *434:4 *8818:B1 15.7175 
3 *434:4 *8793:D 6.6475 
*END

*D_NET *435 0.00199892
*CONN
*I *8794:B I *D sky130_fd_sc_hd__nor2_2
*I *8793:Y O *D sky130_fd_sc_hd__nand4_1
*CAP
1 *8794:B 0.00055572
2 *8793:Y 0.00055572
3 *8581:A2 *8794:B 2.87433e-05
4 *8588:A2 *8794:B 7.4027e-05
5 *8588:B1 *8794:B 7.93269e-05
6 *8786:A3 *8794:B 8.68724e-05
7 *8790:A1 *8794:B 2.75145e-05
8 *8790:A3 *8794:B 4.82863e-05
9 *8793:B *8794:B 9.50342e-06
10 *8794:A *8794:B 0.000102594
11 *243:12 *8794:B 6.79574e-05
12 *249:109 *8794:B 0.000252651
13 *261:105 *8794:B 0.000110007
14 *393:48 *8794:B 0
*RES
1 *8793:Y *8794:B 18.675 
*END

*D_NET *436 0.00472576
*CONN
*I *8985:B1 I *D sky130_fd_sc_hd__o311ai_1
*I *8984:A1 I *D sky130_fd_sc_hd__a21boi_1
*I *8990:A I *D sky130_fd_sc_hd__nand2_1
*I *8806:B I *D sky130_fd_sc_hd__nand3_2
*I *8804:B I *D sky130_fd_sc_hd__nand4_4
*I *8794:Y O *D sky130_fd_sc_hd__nor2_2
*CAP
1 *8985:B1 0
2 *8984:A1 1.60348e-05
3 *8990:A 0.000151848
4 *8806:B 0.000117378
5 *8804:B 7.44845e-05
6 *8794:Y 0.000180052
7 *436:50 0.000268474
8 *436:33 0.00037162
9 *436:29 0.000331395
10 *436:10 0.00043228
11 *8804:B *8810:A 0.000194694
12 *8806:B *620:58 2.16833e-05
13 *8984:A1 *759:18 2.7881e-05
14 *8984:A1 *761:28 2.03321e-05
15 *8990:A *8990:B 0.000203012
16 *8990:A *8994:A 8.23457e-05
17 *8990:A *8994:B 8.40269e-05
18 *8990:A *9132:CLK 0
19 *8990:A *445:44 4.77757e-05
20 *436:10 *8803:A 0.000129015
21 *436:10 *8994:A 0.000134516
22 *436:10 *547:10 0.000355875
23 *436:10 *759:12 0.000191729
24 *436:29 *8985:A1 0.000122331
25 *436:29 *8994:A 0.000104287
26 *436:29 *441:39 7.23635e-05
27 *436:29 *547:10 0.00011379
28 *436:33 *8985:A1 0.00015077
29 *436:33 *8985:C1 0
30 *436:33 *448:6 0
31 *436:50 *8985:A1 2.76356e-05
32 *436:50 *8985:C1 0
33 *436:50 *8994:B 9.30787e-05
34 *436:50 *445:44 4.94404e-05
35 *436:50 *620:58 0.000120655
36 *436:50 *759:18 1.1561e-05
37 *436:50 *761:28 1.01661e-05
38 *8592:A2 *8990:A 2.04748e-05
39 *8804:A *8804:B 9.42091e-06
40 *189:20 *8804:B 0.000102401
41 *189:33 *8804:B 5.20897e-05
42 *243:12 *436:10 0.000228848
*RES
1 *8794:Y *436:10 9.96 
2 *436:10 *8804:B 6.15 
3 *436:10 *436:29 5.21 
4 *436:29 *436:33 2.355 
5 *436:33 *8806:B 3.445 
6 *436:33 *436:50 4.88 
7 *436:50 *8990:A 7.08 
8 *436:50 *8984:A1 4.215 
9 *436:29 *8985:B1 1.6 
*END

*D_NET *437 0.00024354
*CONN
*I *8799:A1 I *D sky130_fd_sc_hd__o21ai_2
*I *8795:Y O *D sky130_fd_sc_hd__nand4_1
*CAP
1 *8799:A1 5.67971e-05
2 *8795:Y 5.67971e-05
3 *8799:A1 *441:12 3.4222e-05
4 *8757:C1 *8799:A1 5.16348e-05
5 *245:8 *8799:A1 4.11194e-05
6 *245:21 *8799:A1 2.97004e-06
*RES
1 *8795:Y *8799:A1 8.58 
*END

*D_NET *438 0.0020852
*CONN
*I *8799:A2 I *D sky130_fd_sc_hd__o21ai_2
*I *8796:Y O *D sky130_fd_sc_hd__nand2_1
*CAP
1 *8799:A2 0.000636376
2 *8796:Y 0.000636376
3 *8799:A2 *8562:A 4.99619e-05
4 *8799:A2 *441:12 5.39961e-05
5 *8757:A1 *8799:A2 0.000119631
6 *8757:B1 *8799:A2 5.02814e-06
7 *8757:C1 *8799:A2 0.000141632
8 *8761:A1 *8799:A2 0.000193254
9 *8761:A2 *8799:A2 4.99782e-05
10 *8761:B1 *8799:A2 9.7744e-05
11 *8796:A *8799:A2 1.14169e-05
12 *8798:A1 *8799:A2 0
13 *8798:A2 *8799:A2 0
14 *258:36 *8799:A2 4.66108e-05
15 *258:40 *8799:A2 1.22676e-05
16 *260:73 *8799:A2 3.09233e-05
*RES
1 *8796:Y *8799:A2 18.465 
*END

*D_NET *439 0.000775695
*CONN
*I *8824:B I *D sky130_fd_sc_hd__nand2_1
*I *8798:B1 I *D sky130_fd_sc_hd__o211ai_1
*I *8797:X O *D sky130_fd_sc_hd__and3_1
*CAP
1 *8824:B 0
2 *8798:B1 9.33841e-05
3 *8797:X 6.58834e-05
4 *439:12 0.000159267
5 *8798:B1 *8799:B1 8.8266e-05
6 *439:12 *718:10 3.86529e-05
7 *8578:A *439:12 9.72742e-06
8 *8824:A *8798:B1 0.00023635
9 *8824:A *439:12 5.4155e-06
10 *258:73 *8798:B1 4.99619e-05
11 *260:45 *439:12 2.87867e-05
*RES
1 *8797:X *439:12 7.085 
2 *439:12 *8798:B1 4.12 
3 *439:12 *8824:B 1.6 
*END

*D_NET *440 0.000451867
*CONN
*I *8799:B1 I *D sky130_fd_sc_hd__o21ai_2
*I *8798:Y O *D sky130_fd_sc_hd__o211ai_1
*CAP
1 *8799:B1 0.000117991
2 *8798:Y 0.000117991
3 *8798:A1 *8799:B1 8.65905e-05
4 *8798:B1 *8799:B1 8.8266e-05
5 *258:36 *8799:B1 5.83121e-06
6 *258:73 *8799:B1 3.51968e-05
*RES
1 *8798:Y *8799:B1 5.375 
*END

*D_NET *441 0.00662851
*CONN
*I *8988:A1 I *D sky130_fd_sc_hd__o21ai_1
*I *8991:A I *D sky130_fd_sc_hd__nor2_1
*I *8985:A1 I *D sky130_fd_sc_hd__o311ai_1
*I *8803:A I *D sky130_fd_sc_hd__nor3_2
*I *8799:Y O *D sky130_fd_sc_hd__o21ai_2
*CAP
1 *8988:A1 1.81182e-05
2 *8991:A 0.0001148
3 *8985:A1 9.08472e-05
4 *8803:A 0.000345386
5 *8799:Y 0.000729887
6 *441:39 0.000228817
7 *441:37 0.000538234
8 *441:12 0.00157222
9 *8803:A *8994:B 9.50342e-06
10 *8803:A *442:24 6.87557e-05
11 *8803:A *445:14 4.9968e-05
12 *8803:A *761:28 5.72829e-05
13 *8985:A1 *8985:C1 4.41824e-05
14 *8985:A1 *620:58 3.1528e-05
15 *8988:A1 *8985:C1 4.9119e-06
16 *8991:A *8990:B 4.82919e-05
17 *8991:A *8991:B 4.26238e-05
18 *8991:A *8994:A 0.000155234
19 *8991:A *759:18 0.000116571
20 *441:12 *547:10 0
21 *441:12 *759:12 0
22 *441:37 *8989:B 8.40213e-05
23 *441:37 *8995:B1 0.000157595
24 *441:37 *9189:A 0
25 *441:37 *547:10 0
26 *441:37 *620:31 5.35071e-05
27 *441:39 *8985:C1 9.85506e-06
28 *441:39 *620:31 4.08514e-05
29 *8565:D *441:12 0.000249928
30 *8580:D *441:12 0.000140912
31 *8592:A2 *8991:A 2.75229e-05
32 *8757:C1 *441:12 9.77943e-05
33 *8778:A *441:12 0.000116158
34 *8778:B *441:12 9.37731e-05
35 *8795:C *441:12 7.90718e-05
36 *8799:A1 *441:12 3.4222e-05
37 *8799:A2 *441:12 5.39961e-05
38 *8801:A *441:12 0
39 *8989:C *441:37 6.10014e-05
40 *243:12 *8803:A 7.40016e-05
41 *251:110 *441:12 0
42 *258:40 *441:12 0
43 *263:14 *441:12 0.00018056
44 *418:10 *441:12 0.000304459
45 *436:10 *8803:A 0.000129015
46 *436:29 *8985:A1 0.000122331
47 *436:29 *441:39 7.23635e-05
48 *436:33 *8985:A1 0.00015077
49 *436:50 *8985:A1 2.76356e-05
*RES
1 *8799:Y *441:12 20.58 
2 *441:12 *8803:A 13.9 
3 *441:12 *441:37 10.265 
4 *441:37 *441:39 0.795 
5 *441:39 *8985:A1 4.135 
6 *441:39 *8991:A 8.705 
7 *441:37 *8988:A1 1.96 
*END

*D_NET *442 0.00452227
*CONN
*I *8985:A2 I *D sky130_fd_sc_hd__o311ai_1
*I *8803:B I *D sky130_fd_sc_hd__nor3_2
*I *8800:Y O *D sky130_fd_sc_hd__nand2_1
*CAP
1 *8985:A2 0.00017865
2 *8803:B 0
3 *8800:Y 0.000793027
4 *442:24 0.000971677
5 *8985:A2 *8985:A3 0.000429876
6 *8985:A2 *8994:A 6.6594e-05
7 *8985:A2 *8994:B 4.55966e-05
8 *8985:A2 *444:16 3.19654e-05
9 *8985:A2 *445:14 0.000157595
10 *8985:A2 *445:44 0.000155234
11 *442:24 *8992:C1 0.0001311
12 *442:24 *8994:B 5.53249e-06
13 *442:24 *444:16 0.000460861
14 *442:24 *759:12 0.000131908
15 *442:24 *761:16 0
16 *442:24 *761:28 0
17 *8569:B *442:24 8.97564e-05
18 *8779:C *442:24 0.000520846
19 *8800:A *442:24 4.99619e-05
20 *8803:A *442:24 6.87557e-05
21 *8820:B1 *442:24 0
22 *8987:D *442:24 4.07381e-05
23 *252:12 *442:24 0.000185405
24 *269:10 *442:24 7.1932e-06
25 *393:29 *442:24 0
*RES
1 *8800:Y *442:24 27.495 
2 *442:24 *8803:B 1.6 
3 *442:24 *8985:A2 11.48 
*END

*D_NET *443 0.00332885
*CONN
*I *8992:C1 I *D sky130_fd_sc_hd__o311ai_1
*I *8802:D I *D sky130_fd_sc_hd__nand4_1
*I *8801:Y O *D sky130_fd_sc_hd__nand3_1
*CAP
1 *8992:C1 0.000278006
2 *8802:D 0.000295145
3 *8801:Y 0.000364456
4 *443:6 0.000937608
5 *8802:D *761:16 0
6 *8581:A1 *8992:C1 8.69583e-05
7 *8588:A1 *8992:C1 5.78206e-05
8 *8588:A3 *8992:C1 9.80943e-06
9 *8778:B *443:6 8.73389e-06
10 *8787:B *8802:D 2.4997e-05
11 *8801:C *443:6 1.56428e-05
12 *8802:B *8802:D 0.000139561
13 *8987:C *8992:C1 0.000273088
14 *8987:D *8802:D 8.73389e-06
15 *8987:D *8992:C1 0.000359858
16 *8992:A3 *8992:C1 6.62088e-05
17 *250:112 *8802:D 3.81908e-06
18 *250:112 *443:6 1.93032e-05
19 *252:12 *443:6 1.56428e-05
20 *263:14 *8992:C1 1.14169e-05
21 *263:25 *8992:C1 6.03837e-05
22 *269:31 *8802:D 7.23602e-05
23 *408:25 *8802:D 8.8196e-05
24 *442:24 *8992:C1 0.0001311
*RES
1 *8801:Y *443:6 5.5 
2 *443:6 *8802:D 10.1 
3 *443:6 *8992:C1 13.475 
*END

*D_NET *444 0.00324547
*CONN
*I *8985:A3 I *D sky130_fd_sc_hd__o311ai_1
*I *8803:C I *D sky130_fd_sc_hd__nor3_2
*I *8802:Y O *D sky130_fd_sc_hd__nand4_1
*CAP
1 *8985:A3 0.000182217
2 *8803:C 0
3 *8802:Y 0.000365758
4 *444:16 0.000547975
5 *8985:A3 *8994:A 0.00019637
6 *8985:A3 *8994:B 0.000302631
7 *444:16 *759:12 0.000460861
8 *8985:A2 *8985:A3 0.000429876
9 *8985:A2 *444:16 3.19654e-05
10 *252:22 *444:16 0.000266952
11 *442:24 *444:16 0.000460861
*RES
1 *8802:Y *444:16 14.39 
2 *444:16 *8803:C 1.6 
3 *444:16 *8985:A3 11.465 
*END

*D_NET *445 0.00298826
*CONN
*I *8990:B I *D sky130_fd_sc_hd__nand2_1
*I *8984:A2 I *D sky130_fd_sc_hd__a21boi_1
*I *8804:C I *D sky130_fd_sc_hd__nand4_4
*I *8806:C I *D sky130_fd_sc_hd__nand3_2
*I *8803:Y O *D sky130_fd_sc_hd__nor3_2
*CAP
1 *8990:B 5.35709e-05
2 *8984:A2 1.77753e-05
3 *8804:C 0
4 *8806:C 5.82078e-05
5 *8803:Y 0.000196924
6 *445:44 0.000249364
7 *445:18 7.24532e-05
8 *445:14 0.000389187
9 *8806:C *761:28 0.000159957
10 *445:14 *8994:B 9.87969e-05
11 *445:14 *761:16 0
12 *445:14 *761:28 0.000230627
13 *445:44 *8984:B1_N 1.85674e-05
14 *445:44 *8994:B 1.52776e-05
15 *445:44 *620:58 1.85674e-05
16 *445:44 *761:28 0.000275743
17 *8592:A2 *8990:B 5.57448e-05
18 *8592:A2 *445:44 6.46602e-05
19 *8803:A *445:14 4.9968e-05
20 *8985:A2 *445:14 0.000157595
21 *8985:A2 *445:44 0.000155234
22 *8990:A *8990:B 0.000203012
23 *8990:A *445:44 4.77757e-05
24 *8991:A *8990:B 4.82919e-05
25 *189:20 *8806:C 0.000208234
26 *189:20 *445:18 4.66108e-05
27 *430:18 *8806:C 2.75145e-05
28 *430:18 *445:18 1.91597e-05
29 *436:50 *445:44 4.94404e-05
*RES
1 *8803:Y *445:14 7.86 
2 *445:14 *445:18 2.45 
3 *445:18 *8806:C 7.94 
4 *445:18 *8804:C 1.6 
5 *445:14 *445:44 7.175 
6 *445:44 *8984:A2 1.96 
7 *445:44 *8990:B 3.79 
*END

*D_NET *446 0.00967891
*CONN
*I *8817:B1 I *D sky130_fd_sc_hd__o2bb2ai_1
*I *8830:B1 I *D sky130_fd_sc_hd__o2bb2ai_1
*I *8809:B1 I *D sky130_fd_sc_hd__o2bb2ai_1
*I *8822:B1 I *D sky130_fd_sc_hd__o2bb2ai_1
*I *8804:Y O *D sky130_fd_sc_hd__nand4_4
*CAP
1 *8817:B1 8.00487e-05
2 *8830:B1 0
3 *8809:B1 6.66687e-05
4 *8822:B1 5.65362e-05
5 *8804:Y 0.00225702
6 *446:50 8.00487e-05
7 *446:30 0.00048506
8 *446:18 0.00261888
9 *8809:B1 *8809:A1_N 7.23635e-05
10 *8809:B1 *8822:A1_N 2.16917e-05
11 *8817:B1 *8817:A1_N 2.0514e-05
12 *8817:B1 *8817:B2 0.000276441
13 *8817:B1 *8830:A1_N 0.000224759
14 *8822:B1 *8809:A1_N 0.000124007
15 *8822:B1 *8822:A1_N 2.30292e-05
16 *446:18 *8587:A 0.000172708
17 *446:18 *8589:A 0.000142661
18 *446:18 *8809:B2 0.000322024
19 *446:18 *8821:A 0
20 *446:18 *8822:B2 0
21 *446:18 *8830:B2 0.000692646
22 *446:18 *8993:A2 2.59926e-05
23 *446:18 *9176:CLK 1.03323e-05
24 *446:18 *9179:A 2.86623e-05
25 *446:18 *449:32 0.000118527
26 *446:18 *620:72 2.35435e-05
27 *446:18 *620:80 0.000202712
28 *446:18 *620:96 5.13692e-05
29 *446:18 *735:1011 4.50017e-05
30 *446:30 *8809:B2 0.000253471
31 *446:30 *8817:A1_N 9.37731e-05
32 *446:30 *8822:B2 0
33 *8804:D *446:18 0.000173285
34 *8822:A2_N *8822:B1 0.000124895
35 *9037:D *446:30 0.00012454
36 *9176:D *446:18 0.000361586
37 *430:18 *446:18 0.000120407
38 *431:58 *446:30 0.00014969
39 *431:90 *446:30 3.40138e-05
*RES
1 *8804:Y *446:18 39.27 
2 *446:18 *446:30 11.12 
3 *446:30 *8822:B1 3.445 
4 *446:30 *8809:B1 3.1 
5 *446:18 *446:50 2 
6 *446:50 *8830:B1 1.6 
7 *446:50 *8817:B1 4.84 
*END

*D_NET *447 0.00178474
*CONN
*I *8806:A I *D sky130_fd_sc_hd__nand3_2
*I *8805:X O *D sky130_fd_sc_hd__o311a_1
*CAP
1 *8806:A 0.000479233
2 *8805:X 0.000479233
3 *8806:A *8993:A1 7.81143e-05
4 *8806:A *8994:C 0.000286642
5 *8788:B1 *8806:A 0.000136884
6 *8805:A1 *8806:A 1.34594e-05
7 *249:135 *8806:A 0.000225285
8 *252:61 *8806:A 8.58927e-05
*RES
1 *8805:X *8806:A 15.21 
*END

*D_NET *448 0.010093
*CONN
*I *8810:A I *D sky130_fd_sc_hd__nand3_2
*I *8816:A I *D sky130_fd_sc_hd__nand3_1
*I *8829:A I *D sky130_fd_sc_hd__nand3_1
*I *8808:A I *D sky130_fd_sc_hd__nand3_1
*I *8821:A I *D sky130_fd_sc_hd__nand3_1
*I *8806:Y O *D sky130_fd_sc_hd__nand3_2
*CAP
1 *8810:A 0.000757734
2 *8816:A 1.68577e-05
3 *8829:A 0.00058852
4 *8808:A 0
5 *8821:A 0.000279209
6 *8806:Y 2.08101e-05
7 *448:22 0.000312519
8 *448:20 0.000670266
9 *448:18 0.00190505
10 *448:6 0.0026183
11 *8810:A *8810:C 0
12 *8810:A *620:72 7.23533e-05
13 *8816:A *8816:B 9.53428e-06
14 *8816:A *449:24 4.00541e-06
15 *8821:A *8809:B2 4.05358e-05
16 *8821:A *8817:B2 4.05358e-05
17 *8821:A *449:20 5.53249e-06
18 *8821:A *449:32 0.000244431
19 *8829:A *8808:B 1.61831e-05
20 *8829:A *8829:B 1.16578e-05
21 *8829:A *8829:C 2.30292e-05
22 *8829:A *8830:B2 0.000550201
23 *8829:A *9179:A 7.99244e-05
24 *8829:A *449:24 7.67415e-06
25 *448:18 *8587:B 0
26 *448:18 *8589:A 0
27 *448:18 *8816:B 1.61831e-05
28 *448:18 *9179:A 0.000198939
29 *448:18 *620:96 0.000114492
30 *448:18 *715:14 0.000276441
31 *448:20 *8816:B 2.11084e-05
32 *448:20 *9179:A 0.000124007
33 *448:20 *449:20 2.75145e-05
34 *448:20 *449:24 1.34594e-05
35 *448:22 *449:24 9.53428e-06
36 *8590:C1 *448:18 1.7028e-05
37 *8752:A1 *448:18 0.000378513
38 *8804:B *8810:A 0.000194694
39 *8810:B *8810:A 3.11329e-05
40 *189:20 *8810:A 0.000222502
41 *189:33 *8810:A 0.000133703
42 *430:18 *8810:A 3.89193e-05
43 *436:33 *448:6 0
44 *446:18 *8821:A 0
*RES
1 *8806:Y *448:6 1.96 
2 *448:6 *448:18 29.215 
3 *448:18 *448:20 1.485 
4 *448:20 *448:22 0.615 
5 *448:22 *8821:A 10.805 
6 *448:22 *8808:A 1.6 
7 *448:20 *8829:A 10.39 
8 *448:18 *8816:A 2.215 
9 *448:6 *8810:A 15.575 
*END

*D_NET *449 0.00386182
*CONN
*I *8816:C I *D sky130_fd_sc_hd__nand3_1
*I *8808:C I *D sky130_fd_sc_hd__nand3_1
*I *8821:C I *D sky130_fd_sc_hd__nand3_1
*I *8829:C I *D sky130_fd_sc_hd__nand3_1
*I *8807:X O *D sky130_fd_sc_hd__or3_2
*CAP
1 *8816:C 0
2 *8808:C 0
3 *8821:C 0
4 *8829:C 0.000246564
5 *8807:X 0.000457123
6 *449:32 0.000378005
7 *449:24 0.000237285
8 *449:20 0.000562967
9 *8829:C *8522:A3 7.07722e-05
10 *8829:C *8808:B 4.11025e-05
11 *8829:C *8821:B 0.000129422
12 *8829:C *8829:B 8.8266e-05
13 *8829:C *8830:B2 2.32597e-05
14 *8829:C *9091:RESET_B 9.50342e-06
15 *8829:C *9179:A 2.75145e-05
16 *8829:C *708:14 0.000120655
17 *8829:C *708:157 1.52184e-05
18 *8829:C *735:121 0
19 *8829:C *735:1011 6.52265e-05
20 *449:20 *8526:A1 7.23602e-05
21 *449:20 *8807:B 0.000124895
22 *449:20 *8816:B 0.000133074
23 *449:20 *9093:RESET_B 0
24 *449:20 *9179:A 0
25 *449:20 *680:23 9.766e-05
26 *449:20 *735:1011 0
27 *449:24 *8808:B 8.65961e-05
28 *449:24 *8816:B 0
29 *449:32 *8809:B2 9.54469e-05
30 *449:32 *8821:B 4.60584e-05
31 *449:32 *735:1011 0.000241483
32 *8816:A *449:24 4.00541e-06
33 *8821:A *449:20 5.53249e-06
34 *8821:A *449:32 0.000244431
35 *8829:A *8829:C 2.30292e-05
36 *8829:A *449:24 7.67415e-06
37 *9176:D *449:20 0
38 *193:112 *449:20 3.76596e-05
39 *446:18 *449:32 0.000118527
40 *448:20 *449:20 2.75145e-05
41 *448:20 *449:24 1.34594e-05
42 *448:22 *449:24 9.53428e-06
*RES
1 *8807:X *449:20 13.91 
2 *449:20 *449:24 1.845 
3 *449:24 *449:32 8.59 
4 *449:32 *8829:C 11.36 
5 *449:32 *8821:C 1.6 
6 *449:24 *8808:C 1.6 
7 *449:20 *8816:C 1.6 
*END

*D_NET *450 0.00252312
*CONN
*I *8809:B2 I *D sky130_fd_sc_hd__o2bb2ai_1
*I *8808:Y O *D sky130_fd_sc_hd__nand3_1
*CAP
1 *8809:B2 0.000657457
2 *8808:Y 0.000657457
3 *8809:B2 *8809:A1_N 0
4 *8809:B2 *8817:B2 0
5 *8809:B2 *8830:A1_N 0
6 *8809:B2 *9029:RESET_B 0.000178255
7 *8809:B2 *9031:RESET_B 0
8 *8809:B2 *735:80 0.000318473
9 *8821:A *8809:B2 4.05358e-05
10 *446:18 *8809:B2 0.000322024
11 *446:30 *8809:B2 0.000253471
12 *449:32 *8809:B2 9.54469e-05
*RES
1 *8808:Y *8809:B2 23.145 
*END

*D_NET *451 0.00444699
*CONN
*I *8811:A I *D sky130_fd_sc_hd__clkbuf_4
*I *8831:B2 I *D sky130_fd_sc_hd__o2bb2ai_1
*I *8833:B2 I *D sky130_fd_sc_hd__o2bb2ai_1
*I *8834:B2 I *D sky130_fd_sc_hd__o2bb2ai_1
*I *8996:B2 I *D sky130_fd_sc_hd__o2bb2ai_1
*I *8810:Y O *D sky130_fd_sc_hd__nand3_2
*CAP
1 *8811:A 0
2 *8831:B2 6.27547e-05
3 *8833:B2 0.000122971
4 *8834:B2 7.91278e-05
5 *8996:B2 0
6 *8810:Y 0.000597631
7 *451:34 0.000266612
8 *451:32 0.000303178
9 *451:19 0.000386056
10 *451:6 0.000682267
11 *8833:B2 *452:14 9.37731e-05
12 *451:32 *719:10 0.000221419
13 *451:32 *719:12 1.7306e-05
14 *451:34 *452:14 0.000159964
15 *451:34 *719:12 2.04724e-05
16 *8776:A2 *8833:B2 3.47837e-05
17 *8776:A2 *451:34 6.00252e-05
18 *8996:A1_N *451:6 3.09179e-05
19 *8996:B1 *451:19 4.04278e-05
20 *8996:B1 *451:32 9.61414e-05
21 *9038:D *8831:B2 0.000123225
22 *9039:D *8833:B2 9.99254e-05
23 *9040:D *8834:B2 0.00012657
24 *9040:D *451:32 4.35348e-05
25 *416:17 *451:32 0.000327478
26 *416:17 *451:34 2.85364e-05
27 *430:18 *451:6 0.000421895
28 *430:22 *451:19 0
*RES
1 *8810:Y *451:6 9.295 
2 *451:6 *8996:B2 1.6 
3 *451:6 *451:19 5.32 
4 *451:19 *8834:B2 2.74 
5 *451:19 *451:32 8.09 
6 *451:32 *451:34 2.4 
7 *451:34 *8833:B2 5.865 
8 *451:34 *8831:B2 4.74 
9 *451:32 *8811:A 3.6 
*END

*D_NET *452 0.0141486
*CONN
*I *8828:B2 I *D sky130_fd_sc_hd__o2bb2ai_1
*I *8826:B2 I *D sky130_fd_sc_hd__o2bb2ai_1
*I *8823:B2 I *D sky130_fd_sc_hd__o2bb2ai_1
*I *8820:B2 I *D sky130_fd_sc_hd__o2bb2ai_1
*I *8813:B2 I *D sky130_fd_sc_hd__o2bb2ai_1
*I *8814:B2 I *D sky130_fd_sc_hd__o2bb2ai_1
*I *8812:B2 I *D sky130_fd_sc_hd__o2bb2ai_1
*I *8815:B2 I *D sky130_fd_sc_hd__o2bb2ai_1
*I *8818:B2 I *D sky130_fd_sc_hd__o2bb2ai_1
*I *8819:B2 I *D sky130_fd_sc_hd__o2bb2ai_1
*I *8811:X O *D sky130_fd_sc_hd__clkbuf_4
*CAP
1 *8828:B2 0
2 *8826:B2 0
3 *8823:B2 0
4 *8820:B2 0
5 *8813:B2 7.65333e-05
6 *8814:B2 2.64281e-05
7 *8812:B2 4.14008e-05
8 *8815:B2 0
9 *8818:B2 0.000184028
10 *8819:B2 0
11 *8811:X 0.000569728
12 *452:62 0.000691615
13 *452:56 0.000770394
14 *452:48 0.000710784
15 *452:42 0.000534397
16 *452:40 0.000340596
17 *452:36 0.000872028
18 *452:34 0.000951441
19 *452:24 0.000563472
20 *452:14 0.000891117
21 *8812:B2 *8812:A2_N 8.73389e-06
22 *8813:B2 *8771:C_N 0.000179015
23 *8813:B2 *597:8 0.000100536
24 *8813:B2 *597:38 1.07797e-05
25 *8814:B2 *8814:A2_N 4.04749e-05
26 *8818:B2 *8818:A2_N 0.0001249
27 *8818:B2 *599:41 0
28 *8818:B2 *601:14 0
29 *452:14 *8753:C 9.35466e-05
30 *452:14 *8828:A2_N 0
31 *452:14 *8828:B1 8.53113e-06
32 *452:14 *8833:A2_N 2.46089e-05
33 *452:14 *9035:CLK 9.60974e-05
34 *452:14 *590:27 0
35 *452:14 *719:12 0.000108322
36 *452:14 *719:14 0.000131408
37 *452:14 *719:16 0.000360603
38 *452:24 *8825:B 0.000243532
39 *452:24 *8826:B1 0.000122325
40 *452:24 *8827:B 0.000118527
41 *452:24 *8828:B1 1.44177e-05
42 *452:24 *455:10 0.000156399
43 *452:24 *588:21 7.30547e-05
44 *452:24 *588:32 0.000114492
45 *452:24 *589:23 1.03423e-05
46 *452:34 *8823:A2_N 0.000145648
47 *452:34 *588:21 3.18219e-05
48 *452:40 *597:12 7.40446e-05
49 *452:42 *8814:A2_N 0.000244858
50 *452:42 *597:12 0.000198934
51 *452:48 *8814:A2_N 6.76322e-05
52 *452:48 *715:35 0.00043044
53 *452:48 *735:41 3.47837e-05
54 *452:56 *8815:A2_N 4.84422e-05
55 *452:56 *587:29 0.000151541
56 *452:56 *735:41 0
57 *452:62 *8815:A2_N 0
58 *452:62 *9024:RESET_B 0
59 *452:62 *587:29 0.00012657
60 *452:62 *599:41 0
61 *452:62 *735:41 0
62 *8770:D *452:42 8.52845e-05
63 *8776:A2 *452:14 0
64 *8789:A *452:40 0.000278179
65 *8812:B1 *8812:B2 3.64998e-06
66 *8814:A1_N *452:48 1.61831e-05
67 *8815:B1 *452:56 4.40899e-05
68 *8818:A1_N *8818:B2 0
69 *8818:A1_N *452:62 0
70 *8823:B1 *452:34 4.82919e-05
71 *8823:B1 *452:36 0.000468152
72 *8833:B2 *452:14 9.37731e-05
73 *9028:D *452:62 0.000152129
74 *9035:D *452:34 0.000120647
75 *9036:D *452:24 4.80285e-05
76 *247:14 *452:14 0.000277029
77 *261:36 *452:40 0.000726123
78 *261:36 *452:42 0.000310768
79 *261:176 *452:24 0
80 *430:36 *452:14 0
81 *430:36 *452:24 0
82 *430:64 *452:36 0.000117336
83 *430:64 *452:40 0.000201503
84 *431:30 *452:48 4.7672e-05
85 *431:30 *452:56 3.05238e-05
86 *431:38 *452:56 0
87 *431:44 *452:62 0
88 *451:34 *452:14 0.000159964
*RES
1 *8811:X *452:14 19.775 
2 *452:14 *452:24 11.23 
3 *452:24 *452:34 9.04 
4 *452:34 *452:36 9.42 
5 *452:36 *452:40 7.365 
6 *452:40 *452:42 4.245 
7 *452:42 *452:48 9.785 
8 *452:48 *452:56 7.1 
9 *452:56 *452:62 10.895 
10 *452:62 *8819:B2 3.6 
11 *452:62 *8818:B2 6.375 
12 *452:56 *8815:B2 1.6 
13 *452:48 *8812:B2 4.05 
14 *452:42 *8814:B2 2.215 
15 *452:40 *8813:B2 8 
16 *452:36 *8820:B2 1.6 
17 *452:34 *8823:B2 1.6 
18 *452:24 *8826:B2 1.6 
19 *452:14 *8828:B2 1.6 
*END

*D_NET *453 0.00199336
*CONN
*I *8817:B2 I *D sky130_fd_sc_hd__o2bb2ai_1
*I *8816:Y O *D sky130_fd_sc_hd__nand3_1
*CAP
1 *8817:B2 0.000756934
2 *8816:Y 0.000756934
3 *8817:B2 *8817:A1_N 8.34281e-06
4 *8817:B2 *8830:A1_N 9.27255e-06
5 *8817:B2 *9031:CLK 0.000139066
6 *8817:B2 *715:14 0
7 *8817:B2 *715:16 0
8 *8809:B2 *8817:B2 0
9 *8817:A2_N *8817:B2 5.83121e-06
10 *8817:B1 *8817:B2 0.000276441
11 *8821:A *8817:B2 4.05358e-05
*RES
1 *8816:Y *8817:B2 19.95 
*END

*D_NET *454 0.00179275
*CONN
*I *8822:B2 I *D sky130_fd_sc_hd__o2bb2ai_1
*I *8821:Y O *D sky130_fd_sc_hd__nand3_1
*CAP
1 *8822:B2 0.000780451
2 *8821:Y 0.000780451
3 *8822:B2 *8830:B2 0
4 *8822:B2 *708:18 0
5 *8822:B2 *708:20 0
6 *8822:B2 *735:121 0
7 *8817:A2_N *8822:B2 4.9968e-05
8 *9029:D *8822:B2 5.00699e-05
9 *431:58 *8822:B2 0
10 *431:90 *8822:B2 0.000131808
11 *446:18 *8822:B2 0
12 *446:30 *8822:B2 0
*RES
1 *8821:Y *8822:B2 20.31 
*END

*D_NET *455 0.00172041
*CONN
*I *8827:C I *D sky130_fd_sc_hd__or4b_1
*I *8825:B I *D sky130_fd_sc_hd__or4b_1
*I *8824:Y O *D sky130_fd_sc_hd__nand2_1
*CAP
1 *8827:C 0
2 *8825:B 0.000103956
3 *8824:Y 0.000252075
4 *455:10 0.000356032
5 *8825:B *9035:CLK 5.42477e-05
6 *455:10 *8828:B1 5.20968e-05
7 *455:10 *9035:CLK 2.03321e-05
8 *8578:A *455:10 1.19928e-05
9 *8824:A *455:10 4.99619e-05
10 *8825:A *8825:B 6.02123e-05
11 *8828:A1_N *455:10 7.66083e-05
12 *261:8 *455:10 0.00015806
13 *430:46 *455:10 0.0001249
14 *452:24 *8825:B 0.000243532
15 *452:24 *455:10 0.000156399
*RES
1 *8824:Y *455:10 9.48 
2 *455:10 *8825:B 6.51 
3 *455:10 *8827:C 3.6 
*END

*D_NET *456 0.000656885
*CONN
*I *8826:B1 I *D sky130_fd_sc_hd__o2bb2ai_1
*I *8825:X O *D sky130_fd_sc_hd__or4b_1
*CAP
1 *8826:B1 0.00016653
2 *8825:X 0.00016653
3 *8826:B1 *8825:D_N 2.75145e-05
4 *8826:B1 *589:14 0.000124007
5 *8826:B1 *589:23 4.99782e-05
6 *452:24 *8826:B1 0.000122325
*RES
1 *8825:X *8826:B1 6.68 
*END

*D_NET *457 0.000474101
*CONN
*I *8828:B1 I *D sky130_fd_sc_hd__o2bb2ai_1
*I *8827:X O *D sky130_fd_sc_hd__or4b_1
*CAP
1 *8828:B1 0.000115778
2 *8827:X 0.000115778
3 *8828:B1 *9035:CLK 0.000141599
4 *8828:B1 *589:53 1.6418e-05
5 *244:14 *8828:B1 5.83121e-06
6 *261:176 *8828:B1 3.64998e-06
7 *452:14 *8828:B1 8.53113e-06
8 *452:24 *8828:B1 1.44177e-05
9 *455:10 *8828:B1 5.20968e-05
*RES
1 *8827:X *8828:B1 9.63 
*END

*D_NET *458 0.00266895
*CONN
*I *8830:B2 I *D sky130_fd_sc_hd__o2bb2ai_1
*I *8829:Y O *D sky130_fd_sc_hd__nand3_1
*CAP
1 *8830:B2 0.000390029
2 *8829:Y 0.000390029
3 *8830:B2 *8808:B 0
4 *8830:B2 *9179:A 0.000464499
5 *8830:B2 *735:1011 0.00015829
6 *8822:B2 *8830:B2 0
7 *8829:A *8830:B2 0.000550201
8 *8829:C *8830:B2 2.32597e-05
9 *446:18 *8830:B2 0.000692646
*RES
1 *8829:Y *8830:B2 20.145 
*END

*D_NET *459 0.000730351
*CONN
*I *8833:B1 I *D sky130_fd_sc_hd__o2bb2ai_1
*I *8832:X O *D sky130_fd_sc_hd__or3b_1
*CAP
1 *8833:B1 0.000235897
2 *8832:X 0.000235897
3 *8833:B1 *8833:A2_N 6.78134e-05
4 *8833:B1 *718:10 0
5 *8832:B *8833:B1 0
6 *9039:D *8833:B1 0.000116716
7 *430:28 *8833:B1 7.4027e-05
*RES
1 *8832:X *8833:B1 11.565 
*END

*D_NET *460 0.000223736
*CONN
*I *8837:A1 I *D sky130_fd_sc_hd__a21oi_1
*I *8835:Y O *D sky130_fd_sc_hd__nand2_1
*CAP
1 *8837:A1 3.48457e-05
2 *8835:Y 3.48457e-05
3 *8835:B *8837:A1 3.00381e-05
4 *59:39 *8837:A1 3.83041e-05
5 *59:43 *8837:A1 8.57024e-05
*RES
1 *8835:Y *8837:A1 4.34 
*END

*D_NET *461 0.0017129
*CONN
*I *8841:A2 I *D sky130_fd_sc_hd__a211o_1
*I *8837:A2 I *D sky130_fd_sc_hd__a21oi_1
*I *8836:X O *D sky130_fd_sc_hd__or2_1
*CAP
1 *8841:A2 0
2 *8837:A2 0.000243936
3 *8836:X 0.000336506
4 *461:18 0.000580442
5 *8837:A2 *8841:B1 1.85674e-05
6 *8837:A2 *8842:B1 0.000158072
7 *8837:A2 *8850:A1 4.32126e-05
8 *8837:A2 *8850:A2 1.65105e-05
9 *461:18 *8841:A1 2.94533e-05
10 *461:18 *8841:B1 7.68414e-06
11 *461:18 *8846:A1 2.05641e-05
12 *461:18 *8850:A2 1.44062e-05
13 *8836:B *461:18 9.66021e-05
14 *8841:C1 *8837:A2 4.87466e-05
15 *8841:C1 *461:18 2.75145e-05
16 *59:74 *8837:A2 7.06865e-05
*RES
1 *8836:X *461:18 9.995 
2 *461:18 *8837:A2 9.77 
3 *461:18 *8841:A2 1.6 
*END

*D_NET *462 0.000451622
*CONN
*I *8838:B1 I *D sky130_fd_sc_hd__a21o_1
*I *8837:Y O *D sky130_fd_sc_hd__a21oi_1
*CAP
1 *8838:B1 0.000160527
2 *8837:Y 0.000160527
3 *8838:B1 *8838:A1 1.47256e-05
4 *8835:B *8838:B1 0
5 *9165:D *8838:B1 4.66108e-05
6 *59:47 *8838:B1 6.92319e-05
*RES
1 *8837:Y *8838:B1 6.095 
*END

*D_NET *463 0.0159195
*CONN
*I *8865:B2 I *D sky130_fd_sc_hd__o2bb2a_1
*I *8854:A2 I *D sky130_fd_sc_hd__o21a_1
*I *8857:A2 I *D sky130_fd_sc_hd__o21a_1
*I *8846:A2 I *D sky130_fd_sc_hd__o21a_1
*I *8850:A2 I *D sky130_fd_sc_hd__o21a_1
*I *8842:A2 I *D sky130_fd_sc_hd__o21a_1
*I *8873:A2 I *D sky130_fd_sc_hd__o21a_1
*I *8883:B1 I *D sky130_fd_sc_hd__o2bb2a_1
*I *8880:A2 I *D sky130_fd_sc_hd__o22a_1
*I *8886:A2 I *D sky130_fd_sc_hd__o22a_1
*I *8839:X O *D sky130_fd_sc_hd__buf_2
*CAP
1 *8865:B2 0
2 *8854:A2 0.000310942
3 *8857:A2 0
4 *8846:A2 0.000144983
5 *8850:A2 0.000377266
6 *8842:A2 3.58965e-05
7 *8873:A2 0.000520965
8 *8883:B1 0
9 *8880:A2 0
10 *8886:A2 8.39273e-05
11 *8839:X 1.41956e-05
12 *463:129 0.000560865
13 *463:110 0.000719553
14 *463:90 0.00140326
15 *463:74 0.00149779
16 *463:70 0.000442204
17 *463:44 0.000956304
18 *463:20 0.000145413
19 *463:12 0.000880964
20 *463:6 0.000657496
21 *8842:A2 *8842:A1 2.75145e-05
22 *8846:A2 *8843:A1 9.53428e-06
23 *8846:A2 *8843:B1 0.000124007
24 *8846:A2 *8844:B 1.07505e-05
25 *8846:A2 *8845:B 4.21973e-05
26 *8846:A2 *8846:A1 4.99619e-05
27 *8846:A2 *8846:B1 0.000266587
28 *8846:A2 *8857:A1 0
29 *8846:A2 *630:40 0.000261948
30 *8846:A2 *630:48 2.59835e-05
31 *8846:A2 *631:44 8.53113e-06
32 *8850:A2 *8840:A 0
33 *8850:A2 *8846:A1 0
34 *8850:A2 *8850:A1 0
35 *8850:A2 *623:10 0.000112196
36 *8850:A2 *630:27 0
37 *8854:A2 *8507:C 5.80512e-05
38 *8854:A2 *8507:D 2.05056e-05
39 *8854:A2 *8854:B1 1.33293e-05
40 *8854:A2 *8857:B1 0.00030276
41 *8854:A2 *473:12 0.000612599
42 *8873:A2 *8857:A1 0.000139933
43 *8873:A2 *8873:A1 2.75229e-05
44 *8873:A2 *8880:B1 8.53113e-06
45 *8873:A2 *8883:A1_N 0
46 *8873:A2 *8883:A2_N 4.35348e-05
47 *8873:A2 *619:56 0.000182343
48 *8873:A2 *626:10 5.36384e-06
49 *8886:A2 *8880:B1 0.000122331
50 *8886:A2 *8880:B2 1.91597e-05
51 *8886:A2 *9058:CLK 2.96426e-05
52 *463:12 *8880:A1 1.52491e-05
53 *463:12 *8880:B2 0
54 *463:12 *8889:A 0
55 *463:12 *8890:A3 7.47215e-05
56 *463:12 *745:61 0.000771092
57 *463:20 *8880:A1 1.03755e-05
58 *463:20 *8880:B1 0.000122331
59 *463:20 *9058:CLK 4.7101e-05
60 *463:44 *8880:A1 8.17755e-05
61 *463:44 *8883:A1_N 1.20411e-05
62 *463:44 *8883:A2_N 0.000203178
63 *463:44 *8883:B2 0.000128021
64 *463:44 *9059:RESET_B 2.40101e-05
65 *463:44 *627:14 1.33293e-05
66 *463:44 *745:61 0.000220017
67 *463:70 *8506:D 0.000186619
68 *463:70 *8864:C1 0.000254447
69 *463:70 *745:61 0
70 *463:74 *8506:A 2.03321e-05
71 *463:74 *8506:B 6.0665e-05
72 *463:74 *8506:D 8.32705e-05
73 *463:74 *8857:A1 0
74 *463:74 *8864:C1 5.38986e-06
75 *463:74 *8865:A1_N 0.000148043
76 *463:74 *745:61 0
77 *463:90 *8846:A1 0.000179207
78 *463:90 *9061:RESET_B 0.000196465
79 *463:110 *8506:B 0.000226132
80 *463:110 *8844:B 3.83455e-05
81 *463:129 *8843:B1 1.34503e-05
82 *463:129 *8844:B 4.82863e-05
83 *463:129 *8857:B1 6.61451e-05
84 *463:129 *630:48 6.07575e-06
85 *463:129 *631:29 8.58339e-06
86 *8514:A *463:12 4.66108e-05
87 *8514:A *463:70 8.65961e-05
88 *8837:A2 *8850:A2 1.65105e-05
89 *8841:C1 *463:90 9.8228e-05
90 *8843:A3 *8846:A2 2.0514e-05
91 *8853:C *8854:A2 3.00381e-05
92 *9051:D *8854:A2 2.7441e-05
93 *9051:D *463:129 2.66586e-05
94 *9053:D *463:74 0
95 *9057:D *8886:A2 0.00015806
96 *9059:D *8886:A2 8.40269e-05
97 *59:74 *8850:A2 5.83373e-05
98 *59:91 *8850:A2 4.13171e-05
99 *59:91 *463:90 0
100 *204:10 *8854:A2 0.000198945
101 *206:39 *463:12 3.39069e-05
102 *210:53 *463:6 1.85674e-05
103 *211:12 *463:70 0.000239807
104 *385:61 *8846:A2 2.72165e-05
105 *385:61 *463:110 0.000150805
106 *385:90 *463:110 0
107 *461:18 *8850:A2 1.44062e-05
*RES
1 *8839:X *463:6 1.96 
2 *463:6 *463:12 11.3525 
3 *463:12 *463:20 3.8225 
4 *463:20 *8886:A2 4.12 
5 *463:20 *8880:A2 1.6 
6 *463:12 *463:44 10.6325 
7 *463:44 *8883:B1 1.6 
8 *463:44 *8873:A2 12.965 
9 *463:6 *463:70 9.14 
10 *463:70 *463:74 4.3275 
11 *463:74 *463:90 10.3493 
12 *463:90 *8842:A2 2.05 
13 *463:90 *8850:A2 12.335 
14 *463:74 *463:110 7.8075 
15 *463:110 *8846:A2 9.27 
16 *463:110 *463:129 5.21 
17 *463:129 *8857:A2 1.6 
18 *463:129 *8854:A2 10.105 
19 *463:70 *8865:B2 3.6 
*END

*D_NET *464 0.0087683
*CONN
*I *8852:C I *D sky130_fd_sc_hd__and3b_1
*I *8866:A3 I *D sky130_fd_sc_hd__a32o_1
*I *8870:C I *D sky130_fd_sc_hd__nand3_1
*I *8858:B I *D sky130_fd_sc_hd__nand2_1
*I *8856:A2 I *D sky130_fd_sc_hd__a211o_1
*I *8851:A2 I *D sky130_fd_sc_hd__a21boi_1
*I *8849:A2 I *D sky130_fd_sc_hd__a211o_1
*I *8841:B1 I *D sky130_fd_sc_hd__a211o_1
*I *8840:Y O *D sky130_fd_sc_hd__nor3_4
*CAP
1 *8852:C 0
2 *8866:A3 0.000129134
3 *8870:C 0
4 *8858:B 9.05873e-05
5 *8856:A2 6.24317e-05
6 *8851:A2 0.000378529
7 *8849:A2 3.38389e-05
8 *8841:B1 0.00048665
9 *8840:Y 0
10 *464:72 0.000117993
11 *464:70 0.000693281
12 *464:55 0.000748321
13 *464:42 0.000527676
14 *464:40 0.000130786
15 *464:25 0.000331076
16 *464:4 0.000653101
17 *8841:B1 *8836:A 0.000257535
18 *8841:B1 *8840:B 4.9968e-05
19 *8841:B1 *8845:A 0
20 *8841:B1 *8846:A1 0
21 *8841:B1 *623:42 0
22 *8841:B1 *623:55 0
23 *8841:B1 *630:14 0.000273878
24 *8849:A2 *8849:B1 4.00541e-06
25 *8849:A2 *8852:A_N 0
26 *8851:A2 *8847:B 8.89751e-05
27 *8851:A2 *8851:A1 0.000316421
28 *8851:A2 *8851:B1_N 0.000203178
29 *8851:A2 *8852:A_N 6.63219e-06
30 *8851:A2 *8853:A 2.30292e-05
31 *8851:A2 *631:23 0.000120908
32 *8851:A2 *721:109 0
33 *8856:A2 *8856:C1 0
34 *8858:B *8506:C 3.09088e-05
35 *8866:A3 *8867:A0 8.49205e-05
36 *464:25 *8840:B 0.000199833
37 *464:25 *8848:A2 0.000163204
38 *464:25 *8849:B1 3.09179e-05
39 *464:25 *8850:B1 0.000501133
40 *464:40 *8507:A 9.27255e-06
41 *464:40 *8849:B1 4.92935e-05
42 *464:40 *8852:A_N 7.52968e-05
43 *464:40 *8852:B 0.000303894
44 *464:55 *8857:B1 0
45 *464:55 *473:12 9.37776e-05
46 *464:55 *631:23 6.5337e-06
47 *464:70 *8506:C 1.15688e-05
48 *464:70 *8854:A1 0
49 *464:70 *8857:A1 0
50 *8509:C *464:70 4.76263e-05
51 *8836:B *8841:B1 8.23899e-05
52 *8837:A2 *8841:B1 1.85674e-05
53 *8841:C1 *8841:B1 7.5883e-05
54 *8845:C *8856:A2 0.000238137
55 *8845:C *464:70 0
56 *8849:C1 *464:40 5.34033e-05
57 *8849:C1 *464:55 0.000285574
58 *8849:C1 *464:70 4.44927e-05
59 *8856:B1 *8856:A2 4.00541e-06
60 *8858:A *8858:B 4.66108e-05
61 *8858:A *464:72 3.57349e-05
62 *8866:A1 *8866:A3 1.67131e-05
63 *8870:A *464:70 2.09648e-05
64 *8870:B *464:70 2.73058e-05
65 *9048:D *8841:B1 8.71001e-05
66 *9050:D *8851:A2 0
67 *9050:D *464:55 0
68 *59:18 *8856:A2 0.000140145
69 *204:10 *464:55 0
70 *204:20 *8866:A3 6.00201e-05
71 *204:24 *8866:A3 2.8185e-05
72 *211:26 *464:70 0
73 *385:23 *8841:B1 0
74 *385:40 *8841:B1 0.000159269
75 *385:61 *8841:B1 0
76 *461:18 *8841:B1 7.68414e-06
*RES
1 *8840:Y *464:4 1.6 
2 *464:4 *8841:B1 16.46 
3 *464:4 *464:25 5.28 
4 *464:25 *8849:A2 2.215 
5 *464:25 *464:40 4.29 
6 *464:40 *464:42 2 
7 *464:42 *8851:A2 11.25 
8 *464:42 *464:55 3.675 
9 *464:55 *8856:A2 6.135 
10 *464:55 *464:70 10.775 
11 *464:70 *464:72 0.45 
12 *464:72 *8858:B 3.1 
13 *464:72 *8870:C 1.6 
14 *464:70 *8866:A3 4.135 
15 *464:40 *8852:C 1.6 
*END

*D_NET *465 0.000412694
*CONN
*I *8842:B1 I *D sky130_fd_sc_hd__o21a_1
*I *8841:X O *D sky130_fd_sc_hd__a211o_1
*CAP
1 *8842:B1 5.53014e-05
2 *8841:X 5.53014e-05
3 *8842:B1 *8842:A1 2.16833e-05
4 *8837:A2 *8842:B1 0.000158072
5 *8841:C1 *8842:B1 0.000122337
*RES
1 *8841:X *8842:B1 5.045 
*END

*D_NET *466 0.000427611
*CONN
*I *8845:A I *D sky130_fd_sc_hd__or3_1
*I *8843:X O *D sky130_fd_sc_hd__o31a_1
*CAP
1 *8845:A 0.000121225
2 *8843:X 0.000121225
3 *8845:A *8845:B 7.00225e-05
4 *8845:A *8846:B1 8.8266e-05
5 *8845:A *623:42 2.68721e-05
6 *8841:B1 *8845:A 0
*RES
1 *8843:X *8845:A 9.375 
*END

*D_NET *467 0.000561586
*CONN
*I *8845:B I *D sky130_fd_sc_hd__or3_1
*I *8844:Y O *D sky130_fd_sc_hd__nor4_1
*CAP
1 *8845:B 0.000147661
2 *8844:Y 0.000147661
3 *8845:B *8846:B1 8.40213e-05
4 *8845:B *623:42 7.00225e-05
5 *8845:A *8845:B 7.00225e-05
6 *8846:A2 *8845:B 4.21973e-05
*RES
1 *8844:Y *8845:B 9.555 
*END

*D_NET *468 0.00167219
*CONN
*I *8846:B1 I *D sky130_fd_sc_hd__o21a_1
*I *8845:X O *D sky130_fd_sc_hd__or3_1
*CAP
1 *8846:B1 0.00032199
2 *8845:X 0.00032199
3 *8846:B1 *8846:A1 0.000284642
4 *8846:B1 *623:42 9.03429e-05
5 *8846:B1 *630:40 0.000124007
6 *8845:A *8846:B1 8.8266e-05
7 *8845:B *8846:B1 8.40213e-05
8 *8846:A2 *8846:B1 0.000266587
9 *385:61 *8846:B1 9.03429e-05
*RES
1 *8845:X *8846:B1 15.36 
*END

*D_NET *469 0.00260373
*CONN
*I *8851:A1 I *D sky130_fd_sc_hd__a21boi_1
*I *8849:A1 I *D sky130_fd_sc_hd__a211o_1
*I *8852:B I *D sky130_fd_sc_hd__and3b_1
*I *8847:Y O *D sky130_fd_sc_hd__nor2_1
*CAP
1 *8851:A1 0.000362596
2 *8849:A1 6.58364e-05
3 *8852:B 0.000208006
4 *8847:Y 3.19143e-05
5 *469:10 0.000437225
6 *469:6 0.000557893
7 *8849:A1 *8852:A_N 0
8 *8849:A1 *631:23 0
9 *8849:A1 *632:21 2.46007e-05
10 *8851:A1 *8847:A 0
11 *8851:A1 *8847:B 9.70988e-05
12 *8851:A1 *8853:A 4.99619e-05
13 *469:6 *8847:A 4.99619e-05
14 *469:10 *8847:B 0
15 *469:10 *631:23 0
16 *469:10 *632:21 9.83202e-05
17 *8851:A2 *8851:A1 0.000316421
18 *464:40 *8852:B 0.000303894
*RES
1 *8847:Y *469:6 2.05 
2 *469:6 *469:10 4.91 
3 *469:10 *8852:B 6.465 
4 *469:10 *8849:A1 4.47 
5 *469:6 *8851:A1 7.69 
*END

*D_NET *470 0.00117931
*CONN
*I *8849:B1 I *D sky130_fd_sc_hd__a211o_1
*I *8848:X O *D sky130_fd_sc_hd__o41a_1
*CAP
1 *8849:B1 0.000117067
2 *8848:X 0.000117067
3 *8849:B1 *8507:A 0.000190633
4 *8849:B1 *8848:A3 8.65905e-05
5 *8849:B1 *8848:B1 0.00046846
6 *8849:B1 *8850:B1 8.25844e-05
7 *8849:A2 *8849:B1 4.00541e-06
8 *8849:C1 *8849:B1 3.26889e-05
9 *464:25 *8849:B1 3.09179e-05
10 *464:40 *8849:B1 4.92935e-05
*RES
1 *8848:X *8849:B1 8.495 
*END

*D_NET *471 0.00209125
*CONN
*I *8850:B1 I *D sky130_fd_sc_hd__o21a_1
*I *8849:X O *D sky130_fd_sc_hd__a211o_1
*CAP
1 *8850:B1 0.00052551
2 *8849:X 0.00052551
3 *8850:B1 *8840:B 8.40213e-05
4 *8850:B1 *8848:A3 8.8266e-05
5 *8850:B1 *8848:B1 0.000162311
6 *8850:B1 *8850:A1 7.60965e-05
7 *8849:B1 *8850:B1 8.25844e-05
8 *9049:D *8850:B1 4.58166e-05
9 *464:25 *8850:B1 0.000501133
*RES
1 *8849:X *8850:B1 14.39 
*END

*D_NET *472 0.00186091
*CONN
*I *8853:A I *D sky130_fd_sc_hd__or3_1
*I *8851:Y O *D sky130_fd_sc_hd__a21boi_1
*CAP
1 *8853:A 0.000646085
2 *8851:Y 0.000646085
3 *8853:A *8851:B1_N 8.09157e-05
4 *8853:A *8855:A_N 0.000335865
5 *8853:A *8855:B 7.89689e-05
6 *8853:A *8856:C1 0
7 *8853:A *572:20 0
8 *8851:A1 *8853:A 4.99619e-05
9 *8851:A2 *8853:A 2.30292e-05
*RES
1 *8851:Y *8853:A 17.595 
*END

*D_NET *473 0.00296557
*CONN
*I *8853:B I *D sky130_fd_sc_hd__or3_1
*I *8855:A_N I *D sky130_fd_sc_hd__and2b_1
*I *8852:X O *D sky130_fd_sc_hd__and3b_1
*CAP
1 *8853:B 0
2 *8855:A_N 0.000310633
3 *8852:X 0.000558046
4 *473:12 0.000868679
5 *8855:A_N *8507:C 0
6 *8855:A_N *8851:B1_N 0
7 *8855:A_N *8854:A1 5.30242e-05
8 *8855:A_N *8855:B 4.99619e-05
9 *8855:A_N *572:20 0
10 *8855:A_N *633:23 0
11 *8855:A_N *735:1416 0
12 *473:12 *8857:B1 2.45601e-05
13 *8853:A *8855:A_N 0.000335865
14 *8853:C *473:12 2.96334e-05
15 *8854:A2 *473:12 0.000612599
16 *9050:D *473:12 2.87867e-05
17 *9051:D *473:12 0
18 *464:55 *473:12 9.37776e-05
*RES
1 *8852:X *473:12 14.06 
2 *473:12 *8855:A_N 11.78 
3 *473:12 *8853:B 1.6 
*END

*D_NET *474 0.000649401
*CONN
*I *8854:B1 I *D sky130_fd_sc_hd__o21a_1
*I *8853:X O *D sky130_fd_sc_hd__or3_1
*CAP
1 *8854:B1 0.000276482
2 *8853:X 0.000276482
3 *8854:B1 *8507:C 0
4 *8853:C *8854:B1 8.31072e-05
5 *8854:A2 *8854:B1 1.33293e-05
*RES
1 *8853:X *8854:B1 6.68 
*END

*D_NET *475 0.00194963
*CONN
*I *8856:C1 I *D sky130_fd_sc_hd__a211o_1
*I *8855:X O *D sky130_fd_sc_hd__and2b_1
*CAP
1 *8856:C1 0.000785536
2 *8855:X 0.000785536
3 *8856:C1 *8854:A1 0
4 *8856:C1 *8855:B 0
5 *8856:C1 *572:20 0.000217271
6 *8853:A *8856:C1 0
7 *8853:C *8856:C1 2.96334e-05
8 *8856:A2 *8856:C1 0
9 *8856:B1 *8856:C1 9.53428e-06
10 *59:16 *8856:C1 0.000122119
*RES
1 *8855:X *8856:C1 19.68 
*END

*D_NET *476 0.00116103
*CONN
*I *8857:B1 I *D sky130_fd_sc_hd__o21a_1
*I *8856:X O *D sky130_fd_sc_hd__a211o_1
*CAP
1 *8857:B1 0.000227584
2 *8856:X 0.000227584
3 *8857:B1 *8507:B 0.00015639
4 *8857:B1 *8843:B1 0
5 *8854:A2 *8857:B1 0.00030276
6 *9051:D *8857:B1 0.000156009
7 *204:10 *8857:B1 0
8 *463:129 *8857:B1 6.61451e-05
9 *464:55 *8857:B1 0
10 *473:12 *8857:B1 2.45601e-05
*RES
1 *8856:X *8857:B1 13.665 
*END

*D_NET *477 0.00431678
*CONN
*I *8859:B I *D sky130_fd_sc_hd__xnor2_1
*I *8863:A2 I *D sky130_fd_sc_hd__o21ai_1
*I *8862:C I *D sky130_fd_sc_hd__or3_1
*I *8869:A4 I *D sky130_fd_sc_hd__o41a_1
*I *8858:Y O *D sky130_fd_sc_hd__nand2_1
*CAP
1 *8859:B 0.000113483
2 *8863:A2 0.000238035
3 *8862:C 0.000201527
4 *8869:A4 0
5 *8858:Y 0.000255542
6 *477:20 0.000778245
7 *477:14 0.000814752
8 *477:12 0.000369025
9 *8859:B *8863:A1 7.00889e-06
10 *8862:C *8508:C 5.83121e-06
11 *8862:C *8862:A 3.70572e-05
12 *8862:C *8869:B1 0
13 *8862:C *9086:D 4.40777e-05
14 *8862:C *637:29 5.92986e-05
15 *8862:C *735:1452 9.5433e-05
16 *8863:A2 *8857:A1 0
17 *8863:A2 *8863:A1 1.00714e-05
18 *8863:A2 *8864:C1 3.2198e-05
19 *8863:A2 *486:10 0.000183043
20 *477:12 *8506:C 0.000120186
21 *477:12 *8857:A1 0
22 *477:12 *486:10 0
23 *477:20 *9086:D 0.000120655
24 *477:20 *486:10 0.000116853
25 *477:20 *577:26 0.000595235
26 *8509:B *477:12 6.55328e-05
27 *211:12 *8863:A2 5.36849e-05
*RES
1 *8858:Y *477:12 10.505 
2 *477:12 *477:14 2 
3 *477:14 *477:20 10.385 
4 *477:20 *8869:A4 1.6 
5 *477:20 *8862:C 9.02 
6 *477:14 *8863:A2 7.935 
7 *477:12 *8859:B 3.085 
*END

*D_NET *478 0.000633756
*CONN
*I *8860:A0 I *D sky130_fd_sc_hd__mux2_1
*I *8859:Y O *D sky130_fd_sc_hd__xnor2_1
*CAP
1 *8860:A0 0.000169162
2 *8859:Y 0.000169162
3 *8860:A0 *8863:B1 2.67022e-05
4 *8860:A0 *712:77 0.00019637
5 *8860:S *8860:A0 7.23602e-05
*RES
1 *8859:Y *8860:A0 9.9 
*END

*D_NET *479 0.00162932
*CONN
*I *8861:A I *D sky130_fd_sc_hd__clkbuf_1
*I *8860:X O *D sky130_fd_sc_hd__mux2_1
*CAP
1 *8861:A 0.000266959
2 *8860:X 0.000266959
3 *8861:A *8863:B1 0.00010596
4 *8861:A *8866:B1 8.41703e-06
5 *8861:A *8868:A 5.92103e-05
6 *8861:A *9054:RESET_B 3.79555e-05
7 *8861:A *636:16 0.000256777
8 *8861:A *712:63 0.000199163
9 *8861:A *712:71 0.000303924
10 *8861:A *712:97 0.000115464
11 *8861:A *735:1416 8.53113e-06
12 *204:18 *8861:A 0
*RES
1 *8860:X *8861:A 14.955 
*END

*D_NET *480 0.00388904
*CONN
*I *8866:B1 I *D sky130_fd_sc_hd__a32o_1
*I *8865:A1_N I *D sky130_fd_sc_hd__o2bb2a_1
*I *8862:X O *D sky130_fd_sc_hd__or3_1
*CAP
1 *8866:B1 2.62807e-05
2 *8865:A1_N 0.000817001
3 *8862:X 0.000712572
4 *480:12 0.00155585
5 *8865:A1_N *8864:C1 0.000150299
6 *8865:A1_N *8865:B1 0.000123574
7 *8865:A1_N *8867:A1 8.80658e-06
8 *8866:B1 *8867:A0 6.95479e-06
9 *8866:B1 *8868:A 1.92979e-05
10 *8866:B1 *9054:CLK 1.11031e-06
11 *480:12 *8867:A1 0.000110134
12 *480:12 *9054:RESET_B 6.74392e-05
13 *480:12 *636:42 0
14 *8861:A *8866:B1 8.41703e-06
15 *8866:A1 *8866:B1 9.68044e-06
16 *206:8 *8865:A1_N 0.000123574
17 *463:74 *8865:A1_N 0.000148043
*RES
1 *8862:X *480:12 6.6141 
2 *480:12 *8865:A1_N 8.39188 
3 *480:12 *8866:B1 4.76 
*END

*D_NET *481 0.00281434
*CONN
*I *8864:C1 I *D sky130_fd_sc_hd__o311a_1
*I *8863:Y O *D sky130_fd_sc_hd__o21ai_1
*CAP
1 *8864:C1 0.000946014
2 *8863:Y 0.000946014
3 *8864:C1 *8863:A1 7.16048e-06
4 *8864:C1 *8863:B1 4.9253e-06
5 *8864:C1 *8865:A2_N 6.86988e-05
6 *8864:C1 *745:61 0
7 *8863:A2 *8864:C1 3.2198e-05
8 *8864:B1 *8864:C1 0
9 *8865:A1_N *8864:C1 0.000150299
10 *9053:D *8864:C1 0
11 *206:70 *8864:C1 0
12 *211:12 *8864:C1 0.000399198
13 *463:70 *8864:C1 0.000254447
14 *463:74 *8864:C1 5.38986e-06
*RES
1 *8863:Y *8864:C1 21.84 
*END

*D_NET *482 0.000802764
*CONN
*I *8865:A2_N I *D sky130_fd_sc_hd__o2bb2a_1
*I *8864:X O *D sky130_fd_sc_hd__o311a_1
*CAP
1 *8865:A2_N 0.000272613
2 *8864:X 0.000272613
3 *8865:A2_N *8864:A2 0.000122325
4 *8864:B1 *8865:A2_N 2.49909e-05
5 *8864:C1 *8865:A2_N 6.86988e-05
6 *8887:A2 *8865:A2_N 2.86265e-06
7 *9053:D *8865:A2_N 3.86607e-05
*RES
1 *8864:X *8865:A2_N 10.935 
*END

*D_NET *483 0.000920899
*CONN
*I *8867:A0 I *D sky130_fd_sc_hd__mux2_1
*I *8866:X O *D sky130_fd_sc_hd__a32o_1
*CAP
1 *8867:A0 0.000270043
2 *8866:X 0.000270043
3 *8867:A0 *8868:A 7.23602e-05
4 *8867:A0 *8869:B1 0.000119762
5 *8867:A0 *712:71 7.06865e-05
6 *8866:A1 *8867:A0 1.4389e-05
7 *8866:A3 *8867:A0 8.49205e-05
8 *8866:B1 *8867:A0 6.95479e-06
9 *204:20 *8867:A0 1.17409e-05
*RES
1 *8866:X *8867:A0 11.04 
*END

*D_NET *484 0.00123153
*CONN
*I *8868:A I *D sky130_fd_sc_hd__clkbuf_1
*I *8867:X O *D sky130_fd_sc_hd__mux2_1
*CAP
1 *8868:A 0.000293749
2 *8867:X 0.000293749
3 *8868:A *636:8 2.06762e-05
4 *8868:A *636:42 4.66108e-05
5 *8868:A *712:63 0.00015806
6 *8861:A *8868:A 5.92103e-05
7 *8866:A2 *8868:A 9.33998e-05
8 *8866:B1 *8868:A 1.92979e-05
9 *8867:A0 *8868:A 7.23602e-05
10 *9054:D *8868:A 5.86036e-05
11 *204:18 *8868:A 7.4027e-05
12 *211:26 *8868:A 4.17819e-05
*RES
1 *8867:X *8868:A 13.365 
*END

*D_NET *485 0.00143364
*CONN
*I *8872:B I *D sky130_fd_sc_hd__or3b_1
*I *8869:X O *D sky130_fd_sc_hd__o41a_1
*CAP
1 *8872:B 0.000348733
2 *8869:X 0.000348733
3 *8872:B *8508:C 1.1561e-05
4 *8872:B *8860:A1 0.000223286
5 *8872:B *8876:A 2.68721e-05
6 *8872:B *735:1462 0
7 *8860:S *8872:B 0.000328774
8 *9056:D *8872:B 9.50342e-06
9 *205:12 *8872:B 0.000136182
*RES
1 *8869:X *8872:B 15.72 
*END

*D_NET *486 0.00298772
*CONN
*I *8877:A3 I *D sky130_fd_sc_hd__o31a_1
*I *8871:B I *D sky130_fd_sc_hd__or2_1
*I *8878:D I *D sky130_fd_sc_hd__or4_1
*I *8870:Y O *D sky130_fd_sc_hd__nand3_1
*CAP
1 *8877:A3 0.000194428
2 *8871:B 3.32472e-05
3 *8878:D 3.35643e-05
4 *8870:Y 0.000355933
5 *486:12 6.68114e-05
6 *486:10 0.000550361
7 *8871:B *492:14 3.66286e-05
8 *8871:B *638:61 8.23457e-05
9 *8877:A3 *8854:A1 3.26822e-05
10 *8877:A3 *8857:A1 0
11 *8877:A3 *8877:B1 1.0183e-05
12 *8877:A3 *8878:B 2.66935e-05
13 *8877:A3 *619:56 2.67275e-05
14 *8877:A3 *624:32 5.83121e-06
15 *8877:A3 *625:49 4.66108e-05
16 *8878:D *8877:A1 0.00012657
17 *8878:D *492:14 0.00012657
18 *8878:D *638:61 3.66286e-05
19 *486:10 *8854:A1 7.00066e-05
20 *486:10 *8857:A1 0
21 *8863:A2 *486:10 0.000183043
22 *8870:B *486:10 0.000116158
23 *211:18 *486:10 0.000312077
24 *211:92 *8877:A3 4.50017e-05
25 *211:92 *486:10 0.000352768
26 *477:12 *486:10 0
27 *477:20 *486:10 0.000116853
*RES
1 *8870:Y *486:10 13.335 
2 *486:10 *486:12 2 
3 *486:12 *8878:D 3.085 
4 *486:12 *8871:B 2.395 
5 *486:10 *8877:A3 7.23 
*END

*D_NET *487 0.00241634
*CONN
*I *8872:C_N I *D sky130_fd_sc_hd__or3b_1
*I *8874:B I *D sky130_fd_sc_hd__xnor2_1
*I *8882:D I *D sky130_fd_sc_hd__or4_1
*I *8885:A4 I *D sky130_fd_sc_hd__o41a_1
*I *8871:X O *D sky130_fd_sc_hd__or2_1
*CAP
1 *8872:C_N 5.85832e-05
2 *8874:B 0
3 *8882:D 2.37509e-05
4 *8885:A4 5.24277e-05
5 *8871:X 0
6 *487:28 9.01457e-05
7 *487:10 0.000340477
8 *487:4 0.000295861
9 *8872:C_N *624:16 0.000111285
10 *8872:C_N *624:22 4.66108e-05
11 *8882:D *8881:A2 0
12 *8885:A4 *8881:A2 4.99619e-05
13 *8885:A4 *8885:A1 4.66108e-05
14 *8885:A4 *492:14 5.76363e-05
15 *8885:A4 *624:46 0.000119762
16 *8885:A4 *626:40 1.46744e-05
17 *487:10 *8877:A1 4.85879e-05
18 *487:10 *8882:C 4.82863e-05
19 *487:10 *492:14 3.72504e-05
20 *487:10 *624:22 0.000292106
21 *487:10 *624:32 8.65961e-05
22 *487:10 *624:46 5.39673e-05
23 *487:28 *624:22 4.1709e-05
24 *8872:A *8872:C_N 6.93175e-05
25 *8872:A *487:28 0
26 *211:92 *8872:C_N 0.000176533
27 *211:92 *487:10 0.000158072
28 *211:92 *487:28 9.61248e-05
*RES
1 *8871:X *487:4 1.6 
2 *487:4 *487:10 6.09 
3 *487:10 *8885:A4 3.43 
4 *487:10 *8882:D 1.96 
5 *487:4 *487:28 1.155 
6 *487:28 *8874:B 1.6 
7 *487:28 *8872:C_N 4.135 
*END

*D_NET *488 0.00171279
*CONN
*I *8873:B1 I *D sky130_fd_sc_hd__o21a_1
*I *8872:X O *D sky130_fd_sc_hd__or3b_1
*CAP
1 *8873:B1 0.000500435
2 *8872:X 0.000500435
3 *8873:B1 *8873:A1 4.35348e-05
4 *8873:B1 *8876:A 0.00013818
5 *8873:B1 *9082:CLK 0.000130494
6 *8873:B1 *619:56 3.00381e-05
7 *8873:B1 *735:1462 0.000140905
8 *8873:B1 *735:1469 0.000109009
9 *9056:D *8873:B1 0.000119756
*RES
1 *8872:X *8873:B1 16.215 
*END

*D_NET *489 0.00117804
*CONN
*I *8875:A0 I *D sky130_fd_sc_hd__mux2_1
*I *8874:Y O *D sky130_fd_sc_hd__xnor2_1
*CAP
1 *8875:A0 0.000242976
2 *8874:Y 0.000242976
3 *8875:A0 *8860:A1 0
4 *8875:A0 *8867:A1 9.87538e-05
5 *8875:A0 *712:97 0.000158297
6 *8875:A0 *712:112 0.000160665
7 *8875:S *8875:A0 0.000186101
8 *211:92 *8875:A0 8.8266e-05
*RES
1 *8874:Y *8875:A0 13.71 
*END

*D_NET *490 0.00206571
*CONN
*I *8876:A I *D sky130_fd_sc_hd__clkbuf_1
*I *8875:X O *D sky130_fd_sc_hd__mux2_1
*CAP
1 *8876:A 0.000690263
2 *8875:X 0.000690263
3 *8876:A *8860:A1 0
4 *8876:A *624:16 0.000200615
5 *8876:A *735:1462 1.73877e-05
6 *8876:A *735:1481 6.95335e-05
7 *8872:A *8876:A 1.37328e-05
8 *8872:B *8876:A 2.68721e-05
9 *8873:B1 *8876:A 0.00013818
10 *9056:D *8876:A 0.000218864
*RES
1 *8875:X *8876:A 19.095 
*END

*D_NET *491 0.00226812
*CONN
*I *8880:B1 I *D sky130_fd_sc_hd__o22a_1
*I *8877:X O *D sky130_fd_sc_hd__o31a_1
*CAP
1 *8880:B1 0.00079236
2 *8877:X 0.00079236
3 *8880:B1 *8857:A1 0.000146998
4 *8880:B1 *8883:A1_N 0
5 *8880:B1 *8886:A1 2.66765e-05
6 *8880:B1 *8889:A 7.23533e-05
7 *8880:B1 *626:10 4.09384e-05
8 *8873:A2 *8880:B1 8.53113e-06
9 *8886:A2 *8880:B1 0.000122331
10 *9058:D *8880:B1 0.000138799
11 *9059:D *8880:B1 4.43871e-06
12 *463:20 *8880:B1 0.000122331
*RES
1 *8877:X *8880:B1 22.255 
*END

*D_NET *492 0.00184035
*CONN
*I *8879:A I *D sky130_fd_sc_hd__nand2_1
*I *8881:A1 I *D sky130_fd_sc_hd__a21oi_1
*I *8878:X O *D sky130_fd_sc_hd__or4_1
*CAP
1 *8879:A 8.69745e-05
2 *8881:A1 6.29313e-05
3 *8878:X 0.000554419
4 *492:14 0.000704325
5 *8879:A *8505:B 2.66935e-05
6 *8879:A *8505:C 0
7 *8879:A *745:61 0
8 *8881:A1 *8881:A2 1.83756e-05
9 *8881:A1 *8886:B2 1.33293e-05
10 *492:14 *8877:A1 7.00889e-06
11 *492:14 *8881:A2 5.57023e-05
12 *492:14 *8882:C 2.75145e-05
13 *492:14 *8885:A1 2.49909e-05
14 *8871:B *492:14 3.66286e-05
15 *8878:D *492:14 0.00012657
16 *8885:A4 *492:14 5.76363e-05
17 *487:10 *492:14 3.72504e-05
*RES
1 *8878:X *492:14 12.815 
2 *492:14 *8881:A1 2.395 
3 *492:14 *8879:A 7.085 
*END

*D_NET *493 0.00180301
*CONN
*I *8880:B2 I *D sky130_fd_sc_hd__o22a_1
*I *8879:Y O *D sky130_fd_sc_hd__nand2_1
*CAP
1 *8880:B2 0.000484865
2 *8879:Y 0.000484865
3 *8880:B2 *8880:A1 8.53113e-06
4 *8880:B2 *8889:A 0.000216106
5 *8880:B2 *9058:CLK 8.23457e-05
6 *8879:B *8880:B2 0.000272984
7 *8886:A2 *8880:B2 1.91597e-05
8 *9057:D *8880:B2 0.000184189
9 *206:39 *8880:B2 4.99619e-05
10 *463:12 *8880:B2 0
*RES
1 *8879:Y *8880:B2 17.085 
*END

*D_NET *494 0.00179407
*CONN
*I *8883:A1_N I *D sky130_fd_sc_hd__o2bb2a_1
*I *8881:Y O *D sky130_fd_sc_hd__a21oi_1
*CAP
1 *8883:A1_N 0.000501571
2 *8881:Y 0.000501571
3 *8883:A1_N *8881:A2 7.16087e-05
4 *8883:A1_N *8883:B2 1.75736e-05
5 *8883:A1_N *8886:B2 0.000163204
6 *8883:A1_N *9057:RESET_B 1.43521e-05
7 *8883:A1_N *619:56 3.03775e-05
8 *8883:A1_N *626:10 2.67022e-05
9 *8883:A1_N *627:14 0.000455072
10 *8883:A1_N *735:1598 0
11 *8883:A1_N *735:1602 0
12 *8883:A1_N *745:61 0
13 *8873:A2 *8883:A1_N 0
14 *8880:B1 *8883:A1_N 0
15 *463:44 *8883:A1_N 1.20411e-05
*RES
1 *8881:Y *8883:A1_N 20.4513 
*END

*D_NET *495 0.00186854
*CONN
*I *8883:A2_N I *D sky130_fd_sc_hd__o2bb2a_1
*I *8882:X O *D sky130_fd_sc_hd__or4_1
*CAP
1 *8883:A2_N 0.000474871
2 *8882:X 0.000474871
3 *8883:A2_N *8854:A1 0
4 *8883:A2_N *8857:A1 0.000337369
5 *8883:A2_N *8877:A1 0.000138551
6 *8883:A2_N *619:56 5.92849e-05
7 *8883:A2_N *624:32 0.000136877
8 *8873:A2 *8883:A2_N 4.35348e-05
9 *463:44 *8883:A2_N 0.000203178
*RES
1 *8882:X *8883:A2_N 16.635 
*END

*D_NET *496 0.00185684
*CONN
*I *8886:B1 I *D sky130_fd_sc_hd__o22a_1
*I *8884:Y O *D sky130_fd_sc_hd__o21ai_1
*CAP
1 *8886:B1 0.000468952
2 *8884:Y 0.000468952
3 *8886:B1 *8846:A1 7.97083e-05
4 *8886:B1 *8889:A 0.000533449
5 *8886:B1 *9058:CLK 0.000197264
6 *8886:B1 *712:14 5.85435e-05
7 *9010:A2 *8886:B1 0
8 *210:24 *8886:B1 4.9968e-05
*RES
1 *8884:Y *8886:B1 16.77 
*END

*D_NET *497 0.00183239
*CONN
*I *8886:B2 I *D sky130_fd_sc_hd__o22a_1
*I *8885:X O *D sky130_fd_sc_hd__o41a_1
*CAP
1 *8886:B2 0.000601171
2 *8885:X 0.000601171
3 *8886:B2 *8846:A1 8.42161e-05
4 *8886:B2 *8881:A2 4.99619e-05
5 *8886:B2 *9059:CLK 2.23922e-05
6 *8886:B2 *712:8 0.000116151
7 *8886:B2 *712:25 0
8 *8881:A1 *8886:B2 1.33293e-05
9 *8881:B1 *8886:B2 0.000180793
10 *8883:A1_N *8886:B2 0.000163204
*RES
1 *8885:X *8886:B2 17.4 
*END

*D_NET *498 0.0019734
*CONN
*I *8890:A2 I *D sky130_fd_sc_hd__o31a_1
*I *8887:X O *D sky130_fd_sc_hd__o21a_1
*CAP
1 *8890:A2 0.000458756
2 *8887:X 0.000458756
3 *8890:A2 *8846:A1 0
4 *8890:A2 *9060:RESET_B 4.94404e-05
5 *8890:A2 *9061:RESET_B 6.81421e-05
6 *8890:A2 *629:6 1.83847e-05
7 *8881:B1 *8890:A2 3.09233e-05
8 *8884:A1 *8890:A2 0
9 *8890:A1 *8890:A2 0.0001249
10 *9060:D *8890:A2 0.000291365
11 *59:91 *8890:A2 0.000314445
12 *59:102 *8890:A2 0.00015829
*RES
1 *8887:X *8890:A2 16.92 
*END

*D_NET *499 0.00136619
*CONN
*I *8890:A3 I *D sky130_fd_sc_hd__o31a_1
*I *8888:Y O *D sky130_fd_sc_hd__nor3_1
*CAP
1 *8890:A3 0.000376212
2 *8888:Y 0.000376212
3 *8890:A3 *8890:B1 0.000134947
4 *8890:A3 *745:61 0.000104009
5 *8514:A *8890:A3 5.83121e-06
6 *206:22 *8890:A3 7.81876e-05
7 *206:39 *8890:A3 0.000113964
8 *210:53 *8890:A3 2.97473e-05
9 *385:118 *8890:A3 7.23533e-05
10 *463:12 *8890:A3 7.47215e-05
*RES
1 *8888:Y *8890:A3 14.685 
*END

*D_NET *500 0.00039839
*CONN
*I *8890:B1 I *D sky130_fd_sc_hd__o31a_1
*I *8889:X O *D sky130_fd_sc_hd__or2_1
*CAP
1 *8890:B1 7.45413e-05
2 *8889:X 7.45413e-05
3 *8889:B *8890:B1 4.66108e-05
4 *8890:A3 *8890:B1 0.000134947
5 *210:53 *8890:B1 6.77501e-05
*RES
1 *8889:X *8890:B1 5.375 
*END

*D_NET *501 0.00102197
*CONN
*I *8892:B1 I *D sky130_fd_sc_hd__a21o_1
*I *8891:X O *D sky130_fd_sc_hd__o311a_1
*CAP
1 *8892:B1 0.000162659
2 *8891:X 0.000162659
3 *8892:B1 *8838:A1 3.00381e-05
4 *8892:B1 *8892:A1 8.8266e-05
5 *8892:A2 *8892:B1 0.000271308
6 *209:14 *8892:B1 0.000307043
*RES
1 *8891:X *8892:B1 7.805 
*END

*D_NET *502 0.0126736
*CONN
*I *8937:A I *D sky130_fd_sc_hd__and4_1
*I *8936:A1 I *D sky130_fd_sc_hd__a31oi_4
*I *8897:A1 I *D sky130_fd_sc_hd__a31oi_1
*I *8954:A1 I *D sky130_fd_sc_hd__a31o_2
*I *8904:A1 I *D sky130_fd_sc_hd__a31o_2
*I *8932:D I *D sky130_fd_sc_hd__and4bb_1
*I *8922:A I *D sky130_fd_sc_hd__and4_1
*I *8951:A2 I *D sky130_fd_sc_hd__a41o_1
*I *8948:A1 I *D sky130_fd_sc_hd__a311oi_4
*I *8895:A I *D sky130_fd_sc_hd__and4_1
*I *8893:X O *D sky130_fd_sc_hd__clkbuf_4
*CAP
1 *8937:A 0.000246643
2 *8936:A1 2.29169e-05
3 *8897:A1 0
4 *8954:A1 0
5 *8904:A1 0.000234956
6 *8932:D 0.000310363
7 *8922:A 0
8 *8951:A2 0
9 *8948:A1 9.37092e-05
10 *8895:A 2.14552e-05
11 *8893:X 6.35261e-05
12 *502:120 0.000546585
13 *502:85 0.000492277
14 *502:70 0.000917704
15 *502:61 0.000783226
16 *502:49 0.000514716
17 *502:36 0.000157507
18 *502:25 0.00035718
19 *502:14 0.000438357
20 *502:10 0.00056998
21 *8904:A1 *8705:B2 0.000256976
22 *8904:A1 *512:12 1.5933e-05
23 *8904:A1 *531:18 0.000273049
24 *8932:D *8702:A1 0
25 *8936:A1 *527:90 5.83121e-06
26 *8937:A *8949:A1 1.65432e-05
27 *8937:A *8949:B1 0
28 *8937:A *8949:B2 0
29 *8937:A *525:8 3.59997e-05
30 *8937:A *527:90 0.000116165
31 *8937:A *735:859 8.40213e-05
32 *8948:A1 *8947:A1_N 8.97486e-05
33 *8948:A1 *735:369 0.000120186
34 *8948:A1 *735:419 0.000173533
35 *8948:A1 *744:18 7.44375e-05
36 *502:10 *8893:A 1.83847e-05
37 *502:10 *8952:B1_N 7.06865e-05
38 *502:10 *8953:A1 7.23602e-05
39 *502:36 *735:419 0.000174529
40 *502:36 *744:18 8.48869e-05
41 *502:49 *8702:A1 0.000233004
42 *502:49 *8897:A3 4.82863e-05
43 *502:49 *8951:A4 4.22057e-05
44 *502:49 *735:419 7.13722e-05
45 *502:49 *744:18 2.6906e-05
46 *502:61 *8715:B 0.000381082
47 *502:61 *8898:A2 4.82919e-05
48 *502:61 *8898:B1 0.000335163
49 *502:61 *8925:B2 4.66108e-05
50 *502:61 *8951:A4 0.000145318
51 *502:61 *505:97 6.57653e-06
52 *502:61 *579:52 0.000107154
53 *502:70 *8715:B 0.000444257
54 *502:70 *8925:B2 0.000122337
55 *502:70 *523:6 0.000220447
56 *502:85 *8705:B2 0.000191335
57 *502:120 *8949:B1 0.000185405
58 *502:120 *8952:B1_N 0.000176291
59 *502:120 *8953:A1 0.000275995
60 *502:120 *527:90 0
61 *502:120 *529:57 2.05366e-05
62 *8693:C1 *8932:D 0
63 *8708:B2 *8932:D 0
64 *8708:B2 *502:70 0.000131658
65 *8708:B2 *502:85 0
66 *8722:A3 *8904:A1 7.87799e-05
67 *8897:A2 *502:49 9.80032e-06
68 *8932:C *8932:D 0
69 *8936:B1 *502:120 0
70 *8937:C *8937:A 8.49205e-05
71 *8937:D *8937:A 0.000147586
72 *8951:A1 *502:49 9.50342e-06
73 *8954:B1 *8904:A1 1.46943e-05
74 *208:42 *502:14 0.000174604
75 *208:42 *502:25 9.2741e-05
76 *208:55 *502:25 0.000104459
77 *275:50 *8904:A1 1.94811e-05
78 *335:55 *8904:A1 4.27146e-05
79 *337:49 *8904:A1 0
80 *339:36 *8932:D 0.00032668
81 *339:47 *8932:D 0.00021755
82 *339:47 *502:85 0.000204463
83 *383:27 *502:49 8.40269e-05
84 *383:51 *8936:A1 2.49909e-05
85 *383:51 *502:120 0.0002528
86 *383:73 *502:61 3.95409e-05
87 *383:84 *502:70 2.96334e-05
88 *383:101 *8932:D 0
*RES
1 *8893:X *502:10 4.92 
2 *502:10 *502:14 4.865 
3 *502:14 *8895:A 1.96 
4 *502:14 *502:25 4.52 
5 *502:25 *8948:A1 7.02 
6 *502:25 *502:36 2.145 
7 *502:36 *8951:A2 3.6 
8 *502:36 *502:49 5.045 
9 *502:49 *502:61 13.93 
10 *502:61 *8922:A 1.6 
11 *502:61 *502:70 10.04 
12 *502:70 *8932:D 10.08 
13 *502:70 *502:85 6.23 
14 *502:85 *8904:A1 9.04087 
15 *502:85 *8954:A1 1.6 
16 *502:49 *8897:A1 1.6 
17 *502:10 *502:120 9.815 
18 *502:120 *8936:A1 2.05 
19 *502:120 *8937:A 11.015 
*END

*D_NET *503 0.0073703
*CONN
*I *8932:B_N I *D sky130_fd_sc_hd__and4bb_1
*I *8897:A3 I *D sky130_fd_sc_hd__a31oi_1
*I *8895:C I *D sky130_fd_sc_hd__and4_1
*I *8948:A3 I *D sky130_fd_sc_hd__a311oi_4
*I *8894:X O *D sky130_fd_sc_hd__and4bb_2
*CAP
1 *8932:B_N 0
2 *8897:A3 0.000189538
3 *8895:C 0.000117661
4 *8948:A3 0.000110363
5 *8894:X 0.000337998
6 *503:34 0.000605365
7 *503:30 0.00129978
8 *503:16 0.0010709
9 *8895:C *529:57 0
10 *8895:C *723:50 0.000130885
11 *8897:A3 *8951:A4 4.82863e-05
12 *8897:A3 *505:22 5.47867e-05
13 *8897:A3 *505:97 5.64768e-05
14 *8897:A3 *579:52 9.18454e-05
15 *8897:A3 *735:419 0
16 *8948:A3 *529:57 0
17 *8948:A3 *723:50 0.000229203
18 *503:16 *8702:A1 0.000312958
19 *503:16 *8702:B2 5.55276e-05
20 *503:16 *8704:B 0.000240155
21 *503:16 *8894:A_N 8.40269e-05
22 *503:30 *8702:A1 8.8266e-05
23 *503:30 *8925:A3 2.0514e-05
24 *503:30 *8935:B2 0.000189894
25 *503:30 *8950:A1 0.000157959
26 *503:30 *9099:RESET_B 4.40889e-05
27 *503:30 *9100:CLK 4.82919e-05
28 *503:30 *9100:RESET_B 2.20753e-05
29 *503:30 *735:373 0.000180285
30 *503:30 *763:34 0.000178282
31 *503:34 *8893:A 8.81869e-05
32 *503:34 *8950:A1 7.84791e-05
33 *8691:A *503:16 0.000104374
34 *8693:C1 *8895:C 0.000158066
35 *8702:C1 *503:16 0.000333812
36 *8932:C *503:16 0.000191521
37 *8932:C *503:30 0.000133615
38 *208:42 *8895:C 0.000158066
39 *275:16 *503:16 0.000110486
40 *502:49 *8897:A3 4.82863e-05
*RES
1 *8894:X *503:16 15.215 
2 *503:16 *503:30 18.715 
3 *503:30 *503:34 6.59 
4 *503:34 *8948:A3 6.255 
5 *503:34 *8895:C 6.72 
6 *503:30 *8897:A3 9.47 
7 *503:16 *8932:B_N 1.6 
*END

*D_NET *504 9.93074e-05
*CONN
*I *8896:A I *D sky130_fd_sc_hd__buf_2
*I *8895:X O *D sky130_fd_sc_hd__and4_1
*CAP
1 *8896:A 1.17533e-05
2 *8895:X 1.17533e-05
3 *8693:C1 *8896:A 4.82863e-05
4 *208:55 *8896:A 2.75145e-05
*RES
1 *8895:X *8896:A 3.65 
*END

*D_NET *505 0.0121112
*CONN
*I *8898:A2 I *D sky130_fd_sc_hd__a22o_1
*I *8949:A2 I *D sky130_fd_sc_hd__a22o_1
*I *8935:A2 I *D sky130_fd_sc_hd__a22o_1
*I *8933:A2 I *D sky130_fd_sc_hd__a22o_1
*I *8934:A2 I *D sky130_fd_sc_hd__a22o_1
*I *8953:A2 I *D sky130_fd_sc_hd__a22o_1
*I *8950:A2 I *D sky130_fd_sc_hd__a22o_1
*I *8896:X O *D sky130_fd_sc_hd__buf_2
*CAP
1 *8898:A2 0.000224575
2 *8949:A2 0.000602545
3 *8935:A2 9.79944e-05
4 *8933:A2 5.83286e-05
5 *8934:A2 1.01638e-05
6 *8953:A2 9.5916e-05
7 *8950:A2 7.19379e-05
8 *8896:X 3.38751e-05
9 *505:97 0.00106689
10 *505:64 0.000233501
11 *505:56 0.000577682
12 *505:28 0.00105922
13 *505:22 0.00182277
14 *505:8 0.000890374
15 *8898:A2 *8898:B1 7.3664e-05
16 *8898:A2 *8951:A4 0.000139245
17 *8933:A2 *8719:B 3.23663e-05
18 *8933:A2 *8933:B1 8.37704e-05
19 *8933:A2 *8933:B2 4.82863e-05
20 *8933:A2 *8934:B2 0.000277223
21 *8934:A2 *8933:B1 4.87465e-06
22 *8935:A2 *8547:C 8.69088e-05
23 *8935:A2 *8935:B1 1.56428e-05
24 *8935:A2 *8935:B2 0
25 *8935:A2 *524:29 9.37731e-05
26 *8949:A2 *8949:A1 3.26889e-05
27 *8949:A2 *8949:B1 5.35969e-06
28 *8949:A2 *9109:CLK 7.35729e-05
29 *8950:A2 *8950:B1 2.10583e-05
30 *8950:A2 *529:18 2.22174e-05
31 *8953:A2 *8952:B1_N 0.000111155
32 *8953:A2 *8953:B1 4.41506e-05
33 *8953:A2 *529:18 0.000109393
34 *505:22 *8950:A1 6.57653e-06
35 *505:22 *706:18 0
36 *505:22 *735:419 5.8529e-05
37 *505:28 *8950:B2 4.05972e-05
38 *505:28 *9112:CLK 0.00016063
39 *505:28 *529:18 1.47347e-05
40 *505:28 *704:10 0.000171854
41 *505:28 *704:110 7.74785e-05
42 *505:28 *763:26 0.000108427
43 *505:56 *8947:B2 0.000263595
44 *505:56 *642:33 5.6361e-05
45 *505:64 *8547:C 0.000418678
46 *505:64 *8719:B 1.61831e-05
47 *505:64 *8933:B1 6.21024e-05
48 *505:64 *8934:B2 0.000151599
49 *505:64 *524:29 0.000416317
50 *505:97 *9073:CLK 0.000160536
51 *505:97 *579:12 0.000296081
52 *505:97 *579:52 0
53 *505:97 *735:419 0.000106576
54 *8693:C1 *505:8 4.82863e-05
55 *8897:A3 *505:22 5.47867e-05
56 *8897:A3 *505:97 5.64768e-05
57 *8951:A1 *505:97 3.31282e-05
58 *9109:D *8949:A2 2.66586e-05
59 *9112:D *8953:A2 5.83121e-06
60 *208:55 *505:22 0.000457702
61 *236:25 *8950:A2 0
62 *236:37 *505:28 3.03587e-05
63 *239:88 *505:22 0.000420846
64 *239:88 *505:28 0.000168807
65 *383:73 *8898:A2 1.16642e-05
66 *383:73 *8949:A2 3.38458e-05
67 *502:61 *8898:A2 4.82919e-05
68 *502:61 *505:97 6.57653e-06
*RES
1 *8896:X *505:8 4.05 
2 *505:8 *505:22 15.13 
3 *505:22 *505:28 14.255 
4 *505:28 *8950:A2 2.665 
5 *505:28 *8953:A2 7.775 
6 *505:22 *505:56 7.9 
7 *505:56 *505:64 8.45 
8 *505:64 *8934:A2 1.96 
9 *505:64 *8933:A2 4.48 
10 *505:56 *8935:A2 5.79 
11 *505:8 *505:97 8.225 
12 *505:97 *8949:A2 8.785 
13 *505:97 *8898:A2 9.065 
*END

*D_NET *506 0.00140256
*CONN
*I *8898:B1 I *D sky130_fd_sc_hd__a22o_1
*I *8897:Y O *D sky130_fd_sc_hd__a31oi_1
*CAP
1 *8898:B1 0.000210675
2 *8897:Y 0.000210675
3 *8898:B1 *8702:A1 8.23457e-05
4 *8898:B1 *8951:A4 5.11148e-06
5 *8898:A2 *8898:B1 7.3664e-05
6 *8951:A1 *8898:B1 0.000484929
7 *502:61 *8898:B1 0.000335163
*RES
1 *8897:Y *8898:B1 13.71 
*END

*D_NET *507 0.000178221
*CONN
*I *8900:A I *D sky130_fd_sc_hd__buf_2
*I *8899:X O *D sky130_fd_sc_hd__or3b_1
*CAP
1 *8900:A 5.27137e-05
2 *8899:X 5.27137e-05
3 *344:60 *8900:A 2.49909e-05
4 *347:31 *8900:A 4.78029e-05
*RES
1 *8899:X *8900:A 4.265 
*END

*D_NET *508 0.0126675
*CONN
*I *8919:A1 I *D sky130_fd_sc_hd__o32a_1
*I *8911:A1 I *D sky130_fd_sc_hd__o32a_1
*I *8909:A1 I *D sky130_fd_sc_hd__o32a_1
*I *8913:A1 I *D sky130_fd_sc_hd__o32a_1
*I *8915:A1 I *D sky130_fd_sc_hd__o32a_1
*I *8917:A1 I *D sky130_fd_sc_hd__o32a_1
*I *8905:A1 I *D sky130_fd_sc_hd__o32a_1
*I *8907:A1 I *D sky130_fd_sc_hd__o32a_1
*I *8900:X O *D sky130_fd_sc_hd__buf_2
*CAP
1 *8919:A1 0
2 *8911:A1 0.000321484
3 *8909:A1 1.24839e-05
4 *8913:A1 0.000142755
5 *8915:A1 0.000206831
6 *8917:A1 0
7 *8905:A1 5.36443e-05
8 *8907:A1 0.000277639
9 *8900:X 3.36122e-05
10 *508:75 0.000502875
11 *508:66 0.0003592
12 *508:62 0.000232591
13 *508:58 0.000410427
14 *508:54 0.000760681
15 *508:18 0.000792071
16 *508:8 0.00118033
17 *8905:A1 *8709:A1 0.000150678
18 *8907:A1 *8699:A1 0.000120655
19 *8907:A1 *8728:B2 0.000102746
20 *8907:A1 *8905:A3 0.000141232
21 *8909:A1 *8909:A3 1.85674e-05
22 *8909:A1 *512:98 4.00541e-06
23 *8911:A1 *8911:A2 0.000329653
24 *8911:A1 *8911:A3 8.65961e-05
25 *8911:A1 *8911:B1 0.000124007
26 *8911:A1 *510:23 5.33085e-05
27 *8911:A1 *510:32 6.28498e-05
28 *8911:A1 *607:14 0
29 *8911:A1 *609:14 6.82228e-05
30 *8911:A1 *609:58 2.34642e-06
31 *8913:A1 *8915:A2 8.52883e-05
32 *8913:A1 *8915:A3 0
33 *8913:A1 *510:50 0
34 *8913:A1 *516:6 8.69583e-05
35 *8915:A1 *8915:B1 0
36 *8915:A1 *8915:B2 0.000237238
37 *508:18 *8709:A1 0.000199955
38 *508:54 *8705:A1 1.08758e-05
39 *508:54 *8727:A1 0.000223565
40 *508:54 *8727:B2 0.00105316
41 *508:54 *8919:A3 0
42 *508:54 *8919:B1 6.3457e-05
43 *508:54 *8919:B2 1.37328e-05
44 *508:54 *8959:A3 0
45 *508:54 *512:12 3.08504e-05
46 *508:54 *512:48 0.00114051
47 *508:54 *607:14 0.000157555
48 *508:58 *510:23 0.000112685
49 *508:58 *607:14 0
50 *508:62 *8909:A3 1.85674e-05
51 *508:66 *8915:B1 0.000198149
52 *508:66 *8917:A3 3.73484e-05
53 *508:66 *8917:B2 4.94457e-05
54 *508:66 *510:38 1.03423e-05
55 *508:66 *512:98 0.000168485
56 *508:75 *8915:B1 2.03897e-05
57 *508:75 *8915:B2 0.000185793
58 *508:75 *510:38 9.53428e-06
59 *8708:B2 *8907:A1 0.00012349
60 *8709:A2 *508:18 5.52834e-05
61 *8709:C1 *508:18 8.1871e-05
62 *8713:B1 *8907:A1 0.000181512
63 *8717:C1 *508:54 0
64 *8722:A3 *508:8 9.71067e-05
65 *8722:A3 *508:54 0.000251488
66 *8727:B1 *508:8 9.47454e-05
67 *8727:B1 *508:54 0.000178526
68 *8728:A1 *8907:A1 1.26626e-05
69 *8728:A2 *8907:A1 0.000331821
70 *9063:D *8905:A1 3.1835e-05
71 *9065:D *508:66 5.05437e-05
72 *9067:D *8913:A1 0.00015829
73 *9068:D *8915:A1 7.29911e-05
74 *9069:D *508:75 4.77757e-05
75 *343:47 *508:18 0.000232205
*RES
1 *8900:X *508:8 4.725 
2 *508:8 *508:18 8.96 
3 *508:18 *8907:A1 13.775 
4 *508:18 *8905:A1 3.085 
5 *508:8 *508:54 22.805 
6 *508:54 *508:58 3.38 
7 *508:58 *508:62 2.36 
8 *508:62 *508:66 4.605 
9 *508:66 *8917:A1 1.6 
10 *508:66 *508:75 3.135 
11 *508:75 *8915:A1 5.635 
12 *508:75 *8913:A1 8.795 
13 *508:62 *8909:A1 1.96 
14 *508:58 *8911:A1 10.92 
15 *508:54 *8919:A1 1.6 
*END

*D_NET *509 0.0120821
*CONN
*I *8960:A2 I *D sky130_fd_sc_hd__o32a_1
*I *8962:A2 I *D sky130_fd_sc_hd__o32a_1
*I *8961:A2 I *D sky130_fd_sc_hd__o32a_1
*I *8957:A2 I *D sky130_fd_sc_hd__o32a_1
*I *8958:A2 I *D sky130_fd_sc_hd__o32a_1
*I *8902:A I *D sky130_fd_sc_hd__buf_2
*I *8959:A2 I *D sky130_fd_sc_hd__o32a_1
*I *8920:C I *D sky130_fd_sc_hd__or4b_1
*I *8901:Y O *D sky130_fd_sc_hd__nand2_2
*CAP
1 *8960:A2 3.56132e-05
2 *8962:A2 1.20605e-05
3 *8961:A2 0.000103392
4 *8957:A2 0
5 *8958:A2 0.000362495
6 *8902:A 4.63063e-05
7 *8959:A2 7.75362e-05
8 *8920:C 0.000443978
9 *8901:Y 0.000455554
10 *509:77 0.000423313
11 *509:64 0.0001569
12 *509:60 0.000326391
13 *509:54 0.000330696
14 *509:45 0.000759494
15 *509:27 0.000801405
16 *509:6 0.00112878
17 *8902:A *614:56 9.80943e-06
18 *8920:C *8547:C 0
19 *8920:C *8721:B2 0
20 *8920:C *8908:B 8.63188e-05
21 *8920:C *8921:A 4.40812e-05
22 *8920:C *710:10 0
23 *8920:C *710:27 0
24 *8920:C *710:31 0.000160658
25 *8958:A2 *8709:A1 3.4783e-05
26 *8958:A2 *8957:A3 8.73389e-06
27 *8958:A2 *8957:B2 2.94433e-05
28 *8958:A2 *8958:A3 2.04763e-05
29 *8958:A2 *8958:B2 4.67423e-05
30 *8958:A2 *9085:D 0.00029977
31 *8958:A2 *510:108 0.000397429
32 *8958:A2 *574:18 9.35052e-05
33 *8958:A2 *614:56 2.8585e-06
34 *8959:A2 *8959:A3 4.66108e-05
35 *8959:A2 *8959:B2 4.66108e-05
36 *8959:A2 *531:106 1.08758e-05
37 *8960:A2 *644:37 0.000123592
38 *8961:A2 *8961:A3 4.66108e-05
39 *8961:A2 *8961:B1 4.52283e-05
40 *8961:A2 *8961:B2 4.99619e-05
41 *8961:A2 *519:14 1.53583e-05
42 *8962:A2 *531:106 3.57349e-05
43 *8962:A2 *644:90 4.66108e-05
44 *509:6 *8912:B 0.000383652
45 *509:6 *8916:B 0.000497665
46 *509:6 *9119:CLK 4.66108e-05
47 *509:6 *518:10 0.00016182
48 *509:6 *519:14 0.000189224
49 *509:6 *741:62 0.000287796
50 *509:27 *8915:A3 1.71013e-05
51 *509:27 *8960:A3 0.000155567
52 *509:27 *8960:B1 0
53 *509:27 *9119:CLK 8.65961e-05
54 *509:27 *518:10 0.000113809
55 *509:27 *519:14 5.26627e-05
56 *509:27 *644:37 0.000161529
57 *509:27 *710:42 0
58 *509:45 *8915:A3 0
59 *509:45 *8917:A3 5.78621e-05
60 *509:45 *8960:A3 0
61 *509:45 *8960:B2 1.62783e-05
62 *509:45 *512:48 5.78621e-05
63 *509:45 *644:37 0.000315678
64 *509:54 *531:106 0.000406935
65 *509:54 *644:90 0.000230429
66 *509:60 *8911:A3 0.000223184
67 *509:60 *510:14 3.24501e-05
68 *509:60 *531:80 1.7635e-05
69 *509:60 *531:97 0.000157322
70 *509:64 *8911:A3 0.000109786
71 *509:64 *514:20 1.88602e-05
72 *509:77 *8957:A3 9.03508e-06
73 *509:77 *8957:B2 5.4155e-06
74 *509:77 *614:56 2.30292e-05
75 *8721:B1 *8920:C 0
76 *8916:A *509:6 4.82863e-05
77 *8920:D_N *8920:C 3.09164e-05
78 *8957:A1 *8902:A 0.000137702
79 *8957:A1 *8958:A2 0
80 *8957:A1 *509:64 6.36438e-07
81 *8957:A1 *509:77 0.000134436
82 *8960:A1 *8960:A2 1.9872e-05
83 *9117:D *8958:A2 8.11756e-05
84 *9119:D *509:27 0
85 *9120:D *8902:A 4.21973e-05
86 *9120:D *8961:A2 0.000120655
87 *9120:D *509:60 8.53113e-06
88 *9120:D *509:64 4.31189e-05
89 *9120:D *509:77 0.000155497
90 *234:34 *509:45 0.000249212
91 *351:33 *8959:A2 8.34281e-06
*RES
1 *8901:Y *509:6 14.47 
2 *509:6 *8920:C 13.865 
3 *509:6 *509:27 9.97 
4 *509:27 *509:45 8.34547 
5 *509:45 *8959:A2 2.74 
6 *509:45 *509:54 3.9 
7 *509:54 *509:60 5.615 
8 *509:60 *509:64 3.38 
9 *509:64 *8902:A 3.1 
10 *509:64 *509:77 2.19 
11 *509:77 *8958:A2 14.585 
12 *509:77 *8957:A2 1.6 
13 *509:60 *8961:A2 5.895 
14 *509:54 *8962:A2 2.05 
15 *509:27 *8960:A2 2.74 
*END

*D_NET *510 0.0112506
*CONN
*I *8905:A2 I *D sky130_fd_sc_hd__o32a_1
*I *8956:A2 I *D sky130_fd_sc_hd__o32a_1
*I *8955:A2 I *D sky130_fd_sc_hd__o32a_1
*I *8907:A2 I *D sky130_fd_sc_hd__o32a_1
*I *8911:A2 I *D sky130_fd_sc_hd__o32a_1
*I *8917:A2 I *D sky130_fd_sc_hd__o32a_1
*I *8915:A2 I *D sky130_fd_sc_hd__o32a_1
*I *8913:A2 I *D sky130_fd_sc_hd__o32a_1
*I *8909:A2 I *D sky130_fd_sc_hd__o32a_1
*I *8919:A2 I *D sky130_fd_sc_hd__o32a_1
*I *8902:X O *D sky130_fd_sc_hd__buf_2
*CAP
1 *8905:A2 2.84417e-05
2 *8956:A2 0
3 *8955:A2 4.93753e-05
4 *8907:A2 6.18837e-05
5 *8911:A2 0.000195253
6 *8917:A2 0
7 *8915:A2 0.000271892
8 *8913:A2 0
9 *8909:A2 0
10 *8919:A2 0
11 *8902:X 0
12 *510:129 0.000181134
13 *510:110 0.000400545
14 *510:108 0.00083932
15 *510:50 0.000528418
16 *510:38 0.000604276
17 *510:32 0.000569831
18 *510:23 0.000110613
19 *510:14 0.000457037
20 *510:4 0.000977228
21 *8905:A2 *8693:A1 3.96737e-05
22 *8905:A2 *8709:A1 2.30292e-05
23 *8905:A2 *512:26 8.65905e-05
24 *8905:A2 *618:14 4.82863e-05
25 *8907:A2 *8699:A1 8.65961e-05
26 *8907:A2 *619:14 1.16578e-05
27 *8911:A2 *8911:A3 0.0001249
28 *8911:A2 *8911:B1 9.62187e-05
29 *8911:A2 *605:10 4.43871e-06
30 *8911:A2 *607:14 0
31 *8911:A2 *609:14 1.85674e-05
32 *8911:A2 *609:58 0.000279787
33 *8915:A2 *8915:A3 0.000120186
34 *8915:A2 *516:6 0.000195678
35 *8915:A2 *710:42 4.91189e-05
36 *8955:A2 *8955:B2 8.99542e-05
37 *510:14 *8705:A1 0.000491043
38 *510:14 *8917:A3 0
39 *510:14 *531:80 9.82856e-06
40 *510:14 *531:97 8.34426e-05
41 *510:23 *8705:A1 0.00020444
42 *510:23 *607:14 0
43 *510:32 *8705:A1 9.50342e-06
44 *510:32 *605:10 3.31204e-05
45 *510:38 *8917:A3 0.00011577
46 *510:38 *512:98 0.000181588
47 *510:50 *8727:A1 8.66976e-06
48 *510:50 *8913:B1 4.99619e-05
49 *510:50 *8913:B2 4.77719e-05
50 *510:50 *8915:B2 8.80293e-06
51 *510:50 *8959:A3 1.53053e-05
52 *510:50 *512:70 0
53 *510:50 *516:6 4.89295e-05
54 *510:50 *607:14 2.55587e-05
55 *510:50 *609:14 2.03321e-05
56 *510:108 *8709:A1 0.00036168
57 *510:108 *8907:B1 4.43871e-06
58 *510:108 *8911:A3 0.000112911
59 *510:108 *9085:D 0
60 *510:108 *9116:CLK 4.66108e-05
61 *510:108 *512:26 9.86532e-05
62 *510:108 *514:20 0.000112911
63 *510:108 *531:38 1.14559e-05
64 *510:110 *8905:A3 7.9593e-05
65 *510:110 *8907:B1 0.000139786
66 *510:110 *9063:CLK 6.4422e-05
67 *510:110 *9085:D 0
68 *510:129 *8907:A3 4.11198e-05
69 *510:129 *8907:B1 5.39422e-05
70 *510:129 *8955:B2 4.55864e-06
71 *510:129 *531:20 7.17021e-05
72 *8911:A1 *8911:A2 0.000329653
73 *8911:A1 *510:23 5.33085e-05
74 *8911:A1 *510:32 6.28498e-05
75 *8913:A1 *8915:A2 8.52883e-05
76 *8913:A1 *510:50 0
77 *8957:A1 *510:14 0.000215829
78 *8957:A1 *510:108 4.66108e-05
79 *8958:A2 *510:108 0.000397429
80 *9063:D *510:110 0.000116151
81 *9064:D *8907:A2 8.49205e-05
82 *9064:D *510:110 0.000103057
83 *9064:D *510:129 1.88904e-05
84 *9067:D *8915:A2 4.82863e-05
85 *9116:D *510:108 0.000122325
86 *9120:D *510:14 4.31189e-05
87 *275:73 *8907:A2 2.06083e-05
88 *275:73 *510:110 1.43749e-05
89 *275:73 *510:129 3.60648e-06
90 *352:60 *8955:A2 8.7152e-06
91 *352:60 *510:129 4.01403e-05
92 *352:62 *8955:A2 0.000162633
93 *508:58 *510:23 0.000112685
94 *508:66 *510:38 1.03423e-05
95 *508:75 *510:38 9.53428e-06
96 *509:60 *510:14 3.24501e-05
*RES
1 *8902:X *510:4 1.6 
2 *510:4 *510:14 10.175 
3 *510:14 *8919:A2 3.6 
4 *510:14 *510:23 2.4 
5 *510:23 *8909:A2 3.6 
6 *510:23 *510:32 0.87 
7 *510:32 *510:38 6.605 
8 *510:38 *510:50 8.44 
9 *510:50 *8913:A2 1.6 
10 *510:50 *8915:A2 11.6 
11 *510:38 *8917:A2 1.6 
12 *510:32 *8911:A2 10.155 
13 *510:4 *510:108 19.68 
14 *510:108 *510:110 5.5875 
15 *510:110 *8907:A2 5.3325 
16 *510:110 *510:129 3.3375 
17 *510:129 *8955:A2 5.49 
18 *510:129 *8956:A2 3.6 
19 *510:108 *8905:A2 4.74 
*END

*D_NET *511 0.00280807
*CONN
*I *8905:A3 I *D sky130_fd_sc_hd__o32a_1
*I *8955:A3 I *D sky130_fd_sc_hd__o32a_1
*I *8903:X O *D sky130_fd_sc_hd__or2_1
*CAP
1 *8905:A3 0.000417173
2 *8955:A3 0.000284117
3 *8903:X 8.88903e-05
4 *511:8 0.000790181
5 *8905:A3 *8693:A1 7.93964e-05
6 *8905:A3 *9063:CLK 0.000163985
7 *8905:A3 *9085:D 5.08955e-05
8 *8955:A3 *8697:B2 0.000164352
9 *8955:A3 *8733:B2 5.39961e-05
10 *8955:A3 *8906:B 0.000107134
11 *8728:A2 *8905:A3 5.17276e-05
12 *8728:A2 *8955:A3 1.95781e-05
13 *8903:A *511:8 0.000120655
14 *8907:A1 *8905:A3 0.000141232
15 *275:73 *8905:A3 0.000179878
16 *275:73 *8955:A3 1.52835e-05
17 *352:62 *8955:A3 0
18 *510:110 *8905:A3 7.9593e-05
*RES
1 *8903:X *511:8 4.74 
2 *511:8 *8955:A3 9.33 
3 *511:8 *8905:A3 12.9 
*END

*D_NET *512 0.0137
*CONN
*I *8909:B1 I *D sky130_fd_sc_hd__o32a_1
*I *8911:B1 I *D sky130_fd_sc_hd__o32a_1
*I *8917:B1 I *D sky130_fd_sc_hd__o32a_1
*I *8915:B1 I *D sky130_fd_sc_hd__o32a_1
*I *8919:B1 I *D sky130_fd_sc_hd__o32a_1
*I *8913:B1 I *D sky130_fd_sc_hd__o32a_1
*I *8907:B1 I *D sky130_fd_sc_hd__o32a_1
*I *8905:B1 I *D sky130_fd_sc_hd__o32a_1
*I *8904:X O *D sky130_fd_sc_hd__a31o_2
*CAP
1 *8909:B1 3.95186e-05
2 *8911:B1 0.000258643
3 *8917:B1 0
4 *8915:B1 0.000449723
5 *8919:B1 0.000209207
6 *8913:B1 6.31454e-05
7 *8907:B1 0.000212824
8 *8905:B1 0
9 *8904:X 0.000527561
10 *512:98 0.000447512
11 *512:87 0.000183093
12 *512:70 0.000568754
13 *512:50 0.000272353
14 *512:48 0.00054583
15 *512:26 0.000711163
16 *512:12 0.00148644
17 *8907:B1 *8709:A1 2.05056e-05
18 *8907:B1 *531:20 0.000125559
19 *8907:B1 *531:38 0.0004242
20 *8907:B1 *618:14 4.82863e-05
21 *8907:B1 *619:14 4.66108e-05
22 *8909:B1 *605:10 4.66108e-05
23 *8911:B1 *8911:A3 0.000316705
24 *8911:B1 *8911:B2 4.66742e-05
25 *8911:B1 *605:10 2.92496e-05
26 *8911:B1 *609:58 9.27255e-06
27 *8913:B1 *607:14 0.000200713
28 *8915:B1 *8915:B2 0.000196575
29 *8919:B1 *8705:A1 1.48096e-05
30 *8919:B1 *8919:A3 0.000111814
31 *8919:B1 *607:14 6.1357e-05
32 *512:12 *8705:B2 4.82172e-06
33 *512:12 *8727:A1 1.92979e-05
34 *512:12 *531:18 0
35 *512:12 *644:39 0
36 *512:26 *8709:A1 0.000122337
37 *512:26 *9085:D 9.86532e-05
38 *512:26 *573:6 4.98732e-05
39 *512:26 *618:14 1.46828e-05
40 *512:48 *8717:A1 0
41 *512:48 *8721:A1 0.000194097
42 *512:48 *8917:A3 0.000122439
43 *512:48 *8960:B2 1.7635e-05
44 *512:48 *9119:SET_B 0.000242779
45 *512:48 *644:39 0
46 *512:48 *735:513 8.3907e-05
47 *512:48 *735:794 3.46196e-05
48 *512:70 *8917:A3 5.75134e-05
49 *512:87 *8727:A1 1.7635e-05
50 *512:87 *8917:A3 2.25119e-05
51 *512:87 *609:14 7.9642e-06
52 *512:98 *8917:A3 8.49205e-05
53 *512:98 *605:10 4.66108e-05
54 *8705:C1 *512:12 7.11219e-05
55 *8708:B2 *8907:B1 4.82919e-05
56 *8713:A2 *512:26 0.000536178
57 *8727:B1 *512:12 0.000206128
58 *8728:A3 *512:12 7.26551e-05
59 *8904:A1 *512:12 1.5933e-05
60 *8904:A2 *512:12 1.30284e-05
61 *8904:A3 *512:12 0.000123701
62 *8905:A2 *512:26 8.65905e-05
63 *8909:A1 *512:98 4.00541e-06
64 *8911:A1 *8911:B1 0.000124007
65 *8911:A2 *8911:B1 9.62187e-05
66 *8915:A1 *8915:B1 0
67 *9063:D *8907:B1 0.000116151
68 *9064:D *8907:B1 0.000113416
69 *9065:D *8909:B1 5.56735e-05
70 *9065:D *512:98 0.000233786
71 *9066:D *8911:B1 0.000123225
72 *9070:D *8919:B1 0.000272085
73 *275:50 *512:12 7.11219e-05
74 *343:10 *512:12 0.000156134
75 *344:46 *512:12 3.54684e-05
76 *345:23 *512:12 0
77 *508:54 *8919:B1 6.3457e-05
78 *508:54 *512:12 3.08504e-05
79 *508:54 *512:48 0.00114051
80 *508:66 *8915:B1 0.000198149
81 *508:66 *512:98 0.000168485
82 *508:75 *8915:B1 2.03897e-05
83 *509:45 *512:48 5.78621e-05
84 *510:38 *512:98 0.000181588
85 *510:50 *8913:B1 4.99619e-05
86 *510:50 *512:70 0
87 *510:108 *8907:B1 4.43871e-06
88 *510:108 *512:26 9.86532e-05
89 *510:110 *8907:B1 0.000139786
90 *510:129 *8907:B1 5.39422e-05
*RES
1 *8904:X *512:12 13.725 
2 *512:12 *512:26 16.305 
3 *512:26 *8905:B1 1.6 
4 *512:26 *8907:B1 12.98 
5 *512:12 *512:48 14.13 
6 *512:48 *512:50 2 
7 *512:50 *8913:B1 3.43 
8 *512:50 *8919:B1 6.565 
9 *512:48 *512:70 1.38 
10 *512:70 *8915:B1 9.945 
11 *512:70 *512:87 2.615 
12 *512:87 *8917:B1 1.6 
13 *512:87 *512:98 4.62 
14 *512:98 *8911:B1 12.35 
15 *512:98 *8909:B1 2.665 
*END

*D_NET *513 0.000696113
*CONN
*I *8907:A3 I *D sky130_fd_sc_hd__o32a_1
*I *8956:A3 I *D sky130_fd_sc_hd__o32a_1
*I *8906:X O *D sky130_fd_sc_hd__or2_1
*CAP
1 *8907:A3 5.24676e-05
2 *8956:A3 0.000104769
3 *8906:X 3.93267e-05
4 *513:6 0.000196564
5 *9115:D *8956:A3 4.81931e-05
6 *275:73 *8907:A3 0.000116165
7 *275:73 *8956:A3 3.21081e-06
8 *275:73 *513:6 5.83121e-06
9 *352:60 *8907:A3 4.43871e-06
10 *352:60 *8956:A3 8.40269e-05
11 *510:129 *8907:A3 4.11198e-05
*RES
1 *8906:X *513:6 2.05 
2 *513:6 *8956:A3 3.805 
3 *513:6 *8907:A3 6.98 
*END

*D_NET *514 0.0064084
*CONN
*I *8909:A3 I *D sky130_fd_sc_hd__o32a_1
*I *8957:A3 I *D sky130_fd_sc_hd__o32a_1
*I *8908:X O *D sky130_fd_sc_hd__or2_1
*CAP
1 *8909:A3 0.000578626
2 *8957:A3 3.76448e-05
3 *8908:X 0.00104094
4 *514:20 0.00165721
5 *8909:A3 *8709:A1 0.000204769
6 *8909:A3 *9085:D 0.000600921
7 *8909:A3 *605:10 1.20373e-05
8 *8957:A3 *8957:B2 4.9253e-06
9 *8957:A3 *614:56 4.66108e-05
10 *514:20 *8709:A1 5.05066e-06
11 *514:20 *8716:B2 5.58672e-05
12 *514:20 *8717:A1 0.000381177
13 *514:20 *8911:A3 0.000237295
14 *514:20 *9085:D 1.79483e-05
15 *514:20 *521:16 0.000124007
16 *514:20 *531:80 0.000123256
17 *514:20 *735:519 0.000171211
18 *8695:A *514:20 0.000310175
19 *8909:A1 *8909:A3 1.85674e-05
20 *8957:A1 *514:20 6.86575e-05
21 *8958:A2 *8957:A3 8.73389e-06
22 *9065:D *8909:A3 0.000219812
23 *9121:D *8909:A3 5.23362e-05
24 *352:31 *514:20 0.000271253
25 *508:62 *8909:A3 1.85674e-05
26 *509:64 *514:20 1.88602e-05
27 *509:77 *8957:A3 9.03508e-06
28 *510:108 *514:20 0.000112911
*RES
1 *8908:X *514:20 21.6641 
2 *514:20 *8957:A3 4.41 
3 *514:20 *8909:A3 15.36 
*END

*D_NET *515 0.0085478
*CONN
*I *8958:A3 I *D sky130_fd_sc_hd__o32a_1
*I *8911:A3 I *D sky130_fd_sc_hd__o32a_1
*I *8910:X O *D sky130_fd_sc_hd__or2_1
*CAP
1 *8958:A3 0.000196386
2 *8911:A3 0.000852969
3 *8910:X 0.00126538
4 *515:30 0.00231474
5 *8911:A3 *8705:A1 3.62887e-05
6 *8911:A3 *8728:B2 7.40907e-05
7 *8911:A3 *8919:A3 0.000145724
8 *8911:A3 *9085:D 0
9 *8911:A3 *9117:CLK 0.000100051
10 *8911:A3 *9120:CLK 3.14383e-05
11 *8911:A3 *519:14 0.000113797
12 *8911:A3 *605:10 2.34345e-05
13 *8911:A3 *609:58 2.30292e-05
14 *8911:A3 *713:55 3.14002e-05
15 *8911:A3 *713:66 0.000298318
16 *8911:A3 *713:89 1.61391e-05
17 *8911:A3 *713:104 0
18 *8911:A3 *713:112 0.000119391
19 *8911:A3 *713:125 0.000182349
20 *8958:A3 *8721:A1 0
21 *8958:A3 *9085:D 3.99395e-05
22 *515:30 *8709:B2 0
23 *515:30 *8711:A1 0.000167046
24 *515:30 *8716:A1 0.00012008
25 *515:30 *8716:B2 4.91816e-05
26 *515:30 *8721:A1 0
27 *515:30 *8727:A1 9.22816e-06
28 *515:30 *8727:B2 0.000169748
29 *8695:A *515:30 4.82863e-05
30 *8713:A2 *515:30 0.000463388
31 *8714:A2 *515:30 1.60083e-05
32 *8714:B1 *515:30 0.000119756
33 *8911:A1 *8911:A3 8.65961e-05
34 *8911:A2 *8911:A3 0.0001249
35 *8911:B1 *8911:A3 0.000316705
36 *8920:D_N *515:30 4.82863e-05
37 *8958:A2 *8958:A3 2.04763e-05
38 *9066:D *8911:A3 3.68596e-05
39 *337:103 *515:30 7.14699e-05
40 *344:66 *515:30 9.27255e-06
41 *347:156 *515:30 2.77434e-05
42 *352:31 *8911:A3 6.10941e-05
43 *352:37 *8911:A3 3.36291e-05
44 *509:60 *8911:A3 0.000223184
45 *509:64 *8911:A3 0.000109786
46 *510:108 *8911:A3 0.000112911
47 *514:20 *8911:A3 0.000237295
*RES
1 *8910:X *515:30 16.5406 
2 *515:30 *8911:A3 26.0975 
3 *515:30 *8958:A3 4.91683 
*END

*D_NET *516 0.00222228
*CONN
*I *8913:A3 I *D sky130_fd_sc_hd__o32a_1
*I *8959:A3 I *D sky130_fd_sc_hd__o32a_1
*I *8912:X O *D sky130_fd_sc_hd__or2_1
*CAP
1 *8913:A3 0
2 *8959:A3 0.000191611
3 *8912:X 0.000238425
4 *516:6 0.000430036
5 *8959:A3 *8716:A1 0.000129488
6 *8959:A3 *8727:B2 0.000152808
7 *8959:A3 *8913:B2 4.77719e-05
8 *8959:A3 *607:14 3.57349e-05
9 *516:6 *8727:B2 0.000491618
10 *8913:A1 *516:6 8.69583e-05
11 *8915:A2 *516:6 0.000195678
12 *8959:A1 *8959:A3 4.99619e-05
13 *8959:A2 *8959:A3 4.66108e-05
14 *8960:A1 *8959:A3 2.30292e-05
15 *351:33 *8959:A3 3.83194e-05
16 *508:54 *8959:A3 0
17 *510:50 *8959:A3 1.53053e-05
18 *510:50 *516:6 4.89295e-05
*RES
1 *8912:X *516:6 9.295 
2 *516:6 *8959:A3 10.22 
3 *516:6 *8913:A3 1.6 
*END

*D_NET *517 0.00164787
*CONN
*I *8960:A3 I *D sky130_fd_sc_hd__o32a_1
*I *8915:A3 I *D sky130_fd_sc_hd__o32a_1
*I *8914:X O *D sky130_fd_sc_hd__or2_1
*CAP
1 *8960:A3 0.000251422
2 *8915:A3 0.000234096
3 *8914:X 9.91926e-05
4 *517:6 0.000584711
5 *8915:A3 *710:42 0
6 *8960:A3 *644:37 4.21973e-05
7 *517:6 *644:37 0.000138799
8 *8913:A1 *8915:A3 0
9 *8915:A2 *8915:A3 0.000120186
10 *8960:A1 *8960:A3 4.59896e-06
11 *9067:D *8915:A3 0
12 *509:27 *8915:A3 1.71013e-05
13 *509:27 *8960:A3 0.000155567
14 *509:45 *8915:A3 0
15 *509:45 *8960:A3 0
*RES
1 *8914:X *517:6 3.775 
2 *517:6 *8915:A3 9.53 
3 *517:6 *8960:A3 9.725 
*END

*D_NET *518 0.00445494
*CONN
*I *8961:A3 I *D sky130_fd_sc_hd__o32a_1
*I *8917:A3 I *D sky130_fd_sc_hd__o32a_1
*I *8916:X O *D sky130_fd_sc_hd__or2_1
*CAP
1 *8961:A3 7.90348e-05
2 *8917:A3 0.000328002
3 *8916:X 0.000793993
4 *518:10 0.00120103
5 *8917:A3 *8705:A1 0
6 *8917:A3 *8917:B2 4.82863e-05
7 *8917:A3 *8959:B1 1.52945e-05
8 *8917:A3 *8960:B2 1.7635e-05
9 *8917:A3 *9119:SET_B 5.23362e-05
10 *8917:A3 *607:14 0.000198753
11 *8917:A3 *609:14 6.59587e-06
12 *8917:A3 *644:39 0
13 *8961:A3 *519:14 5.26823e-05
14 *8961:A3 *615:45 0.000181348
15 *518:10 *8960:B1 8.23457e-05
16 *518:10 *9119:SET_B 0.000121752
17 *518:10 *519:14 4.99786e-05
18 *518:10 *615:6 0
19 *518:10 *615:45 0.000119762
20 *8961:A1 *8961:A3 0.000119762
21 *8961:A2 *8961:A3 4.66108e-05
22 *9119:D *518:10 7.60965e-05
23 *9120:D *8961:A3 1.33285e-05
24 *351:16 *8917:A3 1.71013e-05
25 *351:31 *8917:A3 5.92191e-05
26 *508:66 *8917:A3 3.73484e-05
27 *509:6 *518:10 0.00016182
28 *509:27 *518:10 0.000113809
29 *509:45 *8917:A3 5.78621e-05
30 *510:14 *8917:A3 0
31 *510:38 *8917:A3 0.00011577
32 *512:48 *8917:A3 0.000122439
33 *512:70 *8917:A3 5.75134e-05
34 *512:87 *8917:A3 2.25119e-05
35 *512:98 *8917:A3 8.49205e-05
*RES
1 *8916:X *518:10 13.12 
2 *518:10 *8917:A3 13.91 
3 *518:10 *8961:A3 4.12 
*END

*D_NET *519 0.00462442
*CONN
*I *8919:A3 I *D sky130_fd_sc_hd__o32a_1
*I *8962:A3 I *D sky130_fd_sc_hd__o32a_1
*I *8918:X O *D sky130_fd_sc_hd__or2_1
*CAP
1 *8919:A3 0.000146497
2 *8962:A3 0
3 *8918:X 0.00130642
4 *519:14 0.00145292
5 *8919:A3 *8705:A1 3.64998e-06
6 *8919:A3 *8919:B2 0.000171197
7 *8919:A3 *713:89 2.97561e-05
8 *8919:A3 *713:104 3.69334e-05
9 *8919:A3 *713:112 5.83121e-06
10 *519:14 *8916:B 4.66108e-05
11 *519:14 *8961:B1 3.51971e-05
12 *519:14 *8961:B2 1.83756e-05
13 *519:14 *9119:CLK 0.0001249
14 *519:14 *9119:SET_B 0.000222422
15 *519:14 *9120:CLK 6.03463e-06
16 *519:14 *713:89 6.02202e-05
17 *8911:A3 *8919:A3 0.000145724
18 *8911:A3 *519:14 0.000113797
19 *8916:A *519:14 4.66108e-05
20 *8918:A *519:14 4.66108e-05
21 *8919:B1 *8919:A3 0.000111814
22 *8961:A1 *519:14 6.58423e-05
23 *8961:A2 *519:14 1.53583e-05
24 *8961:A3 *519:14 5.26823e-05
25 *9070:D *8919:A3 1.6408e-05
26 *9119:D *519:14 5.07419e-05
27 *508:54 *8919:A3 0
28 *509:6 *519:14 0.000189224
29 *509:27 *519:14 5.26627e-05
30 *518:10 *519:14 4.99786e-05
*RES
1 *8918:X *519:14 22.11 
2 *519:14 *8962:A3 3.6 
3 *519:14 *8919:A3 8.04 
*END

*D_NET *520 0.000341269
*CONN
*I *8921:A I *D sky130_fd_sc_hd__buf_2
*I *8920:X O *D sky130_fd_sc_hd__or4b_1
*CAP
1 *8921:A 0.000102314
2 *8920:X 0.000102314
3 *8921:A *8721:B2 3.81581e-05
4 *8721:B1 *8921:A 4.43871e-06
5 *8721:C1 *8921:A 4.99619e-05
6 *8920:C *8921:A 4.40812e-05
*RES
1 *8920:X *8921:A 9.03 
*END

*D_NET *521 0.0100094
*CONN
*I *8927:A2 I *D sky130_fd_sc_hd__a32o_1
*I *8929:A2 I *D sky130_fd_sc_hd__a32o_1
*I *8931:A2 I *D sky130_fd_sc_hd__a32o_1
*I *8930:A2 I *D sky130_fd_sc_hd__a32o_1
*I *8928:A2 I *D sky130_fd_sc_hd__a32o_1
*I *8926:A2 I *D sky130_fd_sc_hd__a32o_1
*I *8924:A2 I *D sky130_fd_sc_hd__a32o_1
*I *8925:A2 I *D sky130_fd_sc_hd__a32o_1
*I *8921:X O *D sky130_fd_sc_hd__buf_2
*CAP
1 *8927:A2 0
2 *8929:A2 3.64291e-05
3 *8931:A2 2.8373e-05
4 *8930:A2 7.49763e-05
5 *8928:A2 0.00025663
6 *8926:A2 4.03903e-05
7 *8924:A2 0.00030286
8 *8925:A2 0.000162321
9 *8921:X 0.000608472
10 *521:88 0.000554639
11 *521:84 0.000544454
12 *521:28 0.000581306
13 *521:26 0.000525539
14 *521:22 0.000695788
15 *521:20 0.000156413
16 *521:16 0.000638015
17 *8924:A2 *8924:B2 2.75145e-05
18 *8924:A2 *707:78 0.000119756
19 *8924:A2 *723:10 9.49389e-05
20 *8925:A2 *8702:A1 8.23457e-05
21 *8925:A2 *8925:B1 3.64998e-06
22 *8925:A2 *8925:B2 3.21271e-05
23 *8925:A2 *9071:CLK 0
24 *8925:A2 *707:88 3.09233e-05
25 *8925:A2 *723:10 0.000128353
26 *8925:A2 *723:12 8.53113e-06
27 *8928:A2 *8928:B2 0.000120655
28 *8928:A2 *737:47 3.1562e-06
29 *8929:A2 *8929:A3 0
30 *8930:A2 *8930:A3 0.000223937
31 *8930:A2 *8930:B1 2.09749e-05
32 *8930:A2 *8930:B2 0.000124895
33 *8930:A2 *740:58 7.67415e-06
34 *8931:A2 *8930:A3 8.8266e-05
35 *8931:A2 *8930:B2 4.08514e-05
36 *521:16 *8547:C 8.50332e-05
37 *521:16 *8711:B2 0.000339315
38 *521:16 *8714:A1 1.03323e-05
39 *521:16 *8714:B2 5.57477e-05
40 *521:16 *8716:B2 7.92464e-06
41 *521:16 *8927:B1 1.59999e-05
42 *521:20 *8711:B2 1.03423e-05
43 *521:20 *8714:B2 8.49205e-05
44 *521:20 *730:6 1.1392e-05
45 *521:22 *8711:A1 6.59044e-05
46 *521:22 *8927:A3 7.57315e-05
47 *521:22 *8928:B1 6.60907e-06
48 *521:26 *8711:A1 2.59981e-05
49 *521:26 *8928:B1 1.53032e-05
50 *521:26 *8950:A1 0
51 *521:26 *707:88 9.50342e-06
52 *521:26 *736:41 9.83795e-05
53 *521:28 *8925:B2 0.000178321
54 *521:28 *707:88 0.00015604
55 *521:84 *8928:B1 3.90531e-05
56 *521:88 *8914:B 0.000655133
57 *521:88 *8916:B 0
58 *521:88 *8928:B1 6.36438e-07
59 *521:88 *8929:A3 0.000116151
60 *521:88 *8929:B1 2.11088e-05
61 *521:88 *8930:B1 0
62 *521:88 *8931:A3 0.000183036
63 *521:88 *8931:B1 0
64 *521:88 *523:54 0
65 *521:88 *523:67 0
66 *8714:A2 *521:16 4.26711e-05
67 *8714:B1 *521:16 2.75229e-05
68 *8721:C1 *521:16 1.00941e-05
69 *8897:B1 *8925:A2 1.90762e-05
70 *8908:A *521:16 0.000159313
71 *8922:D *8925:A2 2.13396e-05
72 *8924:A1 *8924:A2 0.000194754
73 *8928:A1 *8928:A2 4.43682e-05
74 *8929:A1 *521:22 9.387e-06
75 *8929:A1 *521:84 5.71187e-05
76 *8929:A1 *521:88 4.55864e-06
77 *8930:A1 *8930:A2 3.15283e-05
78 *9073:D *521:26 0.000136599
79 *9075:D *8928:A2 0
80 *9078:D *521:88 0.000116165
81 *239:103 *8925:A2 0.000136884
82 *239:107 *521:28 7.00066e-05
83 *239:116 *521:26 0.000119529
84 *239:129 *521:22 2.16389e-05
85 *239:129 *521:26 2.97204e-05
86 *514:20 *521:16 0.000124007
*RES
1 *8921:X *521:16 16.16 
2 *521:16 *521:20 2.795 
3 *521:20 *521:22 1.89 
4 *521:22 *521:26 7.185 
5 *521:26 *521:28 3.675 
6 *521:28 *8925:A2 7.86 
7 *521:28 *8924:A2 9.39 
8 *521:26 *8926:A2 4.05 
9 *521:22 *8928:A2 6.99 
10 *521:20 *521:84 1.38 
11 *521:84 *521:88 12.815 
12 *521:88 *8930:A2 4.585 
13 *521:88 *8931:A2 2.755 
14 *521:84 *8929:A2 4.05 
15 *521:16 *8927:A2 1.6 
*END

*D_NET *522 0.000116022
*CONN
*I *8923:A I *D sky130_fd_sc_hd__buf_2
*I *8922:X O *D sky130_fd_sc_hd__and4_1
*CAP
1 *8923:A 9.71884e-06
2 *8922:X 9.71884e-06
3 *8923:A *8715:B 4.82919e-05
4 *383:84 *8923:A 4.82919e-05
*RES
1 *8922:X *8923:A 3.65 
*END

*D_NET *523 0.00813385
*CONN
*I *8924:B2 I *D sky130_fd_sc_hd__a32o_1
*I *8931:B2 I *D sky130_fd_sc_hd__a32o_1
*I *8930:B2 I *D sky130_fd_sc_hd__a32o_1
*I *8929:B2 I *D sky130_fd_sc_hd__a32o_1
*I *8927:B2 I *D sky130_fd_sc_hd__a32o_1
*I *8928:B2 I *D sky130_fd_sc_hd__a32o_1
*I *8926:B2 I *D sky130_fd_sc_hd__a32o_1
*I *8925:B2 I *D sky130_fd_sc_hd__a32o_1
*I *8923:X O *D sky130_fd_sc_hd__buf_2
*CAP
1 *8924:B2 0.000253309
2 *8931:B2 0
3 *8930:B2 0.00017482
4 *8929:B2 1.4908e-05
5 *8927:B2 0
6 *8928:B2 0.000167386
7 *8926:B2 0
8 *8925:B2 0.000252686
9 *8923:X 0
10 *523:67 0.000574509
11 *523:54 0.000558813
12 *523:45 0.000185265
13 *523:32 0.000413522
14 *523:23 0.000255252
15 *523:6 0.000469376
16 *523:4 0.000419834
17 *8924:B2 *8715:B 1.7396e-05
18 *8924:B2 *8903:B 3.05137e-05
19 *8924:B2 *8935:A1 2.37234e-05
20 *8924:B2 *763:34 2.09749e-05
21 *8925:B2 *723:10 0.00013521
22 *8925:B2 *723:12 3.09164e-05
23 *8928:B2 *8711:A1 0.000307049
24 *8929:B2 *8716:B2 2.75145e-05
25 *8929:B2 *8929:B1 7.00889e-06
26 *8929:B2 *9181:A 1.34503e-05
27 *8930:B2 *8930:A3 4.65889e-05
28 *8930:B2 *8931:B1 2.09749e-05
29 *523:23 *8547:C 7.3664e-05
30 *523:32 *8547:C 0.000265465
31 *523:32 *8927:B1 7.23533e-05
32 *523:45 *8927:B1 0.000128353
33 *523:54 *8927:B1 2.04411e-05
34 *523:54 *8929:A3 0
35 *523:54 *8929:B1 6.63219e-06
36 *523:67 *8912:B 0.000377302
37 *523:67 *8929:A3 0
38 *523:67 *8931:B1 0.00017398
39 *8922:C *8924:B2 0.000114492
40 *8924:A1 *8924:B2 1.47347e-05
41 *8924:A2 *8924:B2 2.75145e-05
42 *8925:A2 *8925:B2 3.21271e-05
43 *8928:A1 *8928:B2 2.0514e-05
44 *8928:A2 *8928:B2 0.000120655
45 *8929:A1 *523:54 0
46 *8930:A2 *8930:B2 0.000124895
47 *8931:A2 *8930:B2 4.08514e-05
48 *8932:C *8924:B2 0
49 *236:77 *8925:B2 6.92175e-05
50 *236:77 *523:23 0.000136884
51 *236:77 *523:32 0.000446341
52 *236:85 *523:32 4.9968e-05
53 *236:85 *523:45 0.000136884
54 *236:85 *523:54 0.000141221
55 *236:98 *523:54 2.4997e-05
56 *236:98 *523:67 0.000263756
57 *239:107 *8925:B2 0.000261889
58 *383:101 *8924:B2 0
59 *502:61 *8925:B2 4.66108e-05
60 *502:70 *8925:B2 0.000122337
61 *502:70 *523:6 0.000220447
62 *521:28 *8925:B2 0.000178321
63 *521:88 *523:54 0
64 *521:88 *523:67 0
*RES
1 *8923:X *523:4 1.6 
2 *523:4 *523:6 2.175 
3 *523:6 *8925:B2 11.78 
4 *523:6 *523:23 3.635 
5 *523:23 *8926:B2 3.6 
6 *523:23 *523:32 6.48 
7 *523:32 *8928:B2 7.17 
8 *523:32 *523:45 1.635 
9 *523:45 *8927:B2 3.6 
10 *523:45 *523:54 2.4 
11 *523:54 *8929:B2 4.05 
12 *523:54 *523:67 12.05 
13 *523:67 *8930:B2 4.81 
14 *523:67 *8931:B2 1.6 
15 *523:4 *8924:B2 10.295 
*END

*D_NET *524 0.00416552
*CONN
*I *8934:B1 I *D sky130_fd_sc_hd__a22o_1
*I *8933:B1 I *D sky130_fd_sc_hd__a22o_1
*I *8935:B1 I *D sky130_fd_sc_hd__a22o_1
*I *8932:X O *D sky130_fd_sc_hd__and4bb_1
*CAP
1 *8934:B1 0
2 *8933:B1 6.27164e-05
3 *8935:B1 5.60795e-05
4 *8932:X 0.000510246
5 *524:29 0.000300479
6 *524:12 0.000804088
7 *8933:B1 *8719:B 0.000277223
8 *8933:B1 *8933:B2 4.82863e-05
9 *524:12 *8698:B 4.66826e-05
10 *524:29 *8547:C 2.13396e-05
11 *524:29 *8934:A1 0.000569048
12 *524:29 *8935:A1 2.5947e-05
13 *8698:A_N *524:12 1.47256e-05
14 *8702:C1 *524:12 0.000133397
15 *8933:A2 *8933:B1 8.37704e-05
16 *8934:A2 *8933:B1 4.87465e-06
17 *8935:A2 *8935:B1 1.56428e-05
18 *8935:A2 *524:29 9.37731e-05
19 *9100:D *8935:B1 0.000118081
20 *9100:D *524:12 4.66108e-05
21 *275:16 *524:12 0.000143659
22 *339:36 *524:12 0.000310429
23 *505:64 *8933:B1 6.21024e-05
24 *505:64 *524:29 0.000416317
*RES
1 *8932:X *524:12 15.245 
2 *524:12 *8935:B1 2.74 
3 *524:12 *524:29 11.29 
4 *524:29 *8933:B1 4.48 
5 *524:29 *8934:B1 1.6 
*END

*D_NET *525 0.0111162
*CONN
*I *8943:A2 I *D sky130_fd_sc_hd__a22o_1
*I *8942:A2 I *D sky130_fd_sc_hd__a22o_1
*I *8944:A2 I *D sky130_fd_sc_hd__a22o_1
*I *8945:A2 I *D sky130_fd_sc_hd__a22o_1
*I *8941:A2 I *D sky130_fd_sc_hd__a22o_1
*I *8946:A2 I *D sky130_fd_sc_hd__a22o_1
*I *8939:A2 I *D sky130_fd_sc_hd__a22o_1
*I *8940:A2 I *D sky130_fd_sc_hd__a22o_1
*I *8936:Y O *D sky130_fd_sc_hd__a31oi_4
*CAP
1 *8943:A2 0.000144803
2 *8942:A2 3.96372e-05
3 *8944:A2 0
4 *8945:A2 3.64371e-05
5 *8941:A2 0
6 *8946:A2 0
7 *8939:A2 0.000100876
8 *8940:A2 0
9 *8936:Y 0.000338006
10 *525:96 0.000363687
11 *525:59 0.000223862
12 *525:48 0.000405773
13 *525:42 0.000494194
14 *525:36 0.000505888
15 *525:28 0.00165863
16 *525:8 0.00191784
17 *8939:A2 *8939:A1 0.000357118
18 *8939:A2 *686:8 0.000316792
19 *8939:A2 *686:39 4.03257e-05
20 *8942:A2 *8942:B1 1.08758e-05
21 *8942:A2 *8974:A1 1.46828e-05
22 *8942:A2 *688:39 4.99619e-05
23 *8942:A2 *739:34 5.05521e-05
24 *8943:A2 *8949:A1 4.91397e-05
25 *8943:A2 *9074:RESET_B 0
26 *8943:A2 *689:14 3.00381e-05
27 *8945:A2 *8945:A1 5.05437e-05
28 *525:8 *8707:A1 1.63344e-05
29 *525:8 *8942:B2 3.89534e-05
30 *525:8 *8949:A1 0.000127374
31 *525:8 *8949:B1 0
32 *525:8 *8949:B2 3.86607e-05
33 *525:8 *527:90 0
34 *525:8 *695:8 8.66153e-05
35 *525:8 *695:14 3.96263e-05
36 *525:8 *737:16 3.05521e-05
37 *525:28 *8726:A1 3.54025e-05
38 *525:28 *8726:B2 2.67275e-05
39 *525:28 *8942:B2 1.88904e-05
40 *525:28 *8980:A0 0
41 *525:28 *8981:A2 0.000687532
42 *525:28 *8981:B2 6.65874e-05
43 *525:28 *9107:CLK 0
44 *525:28 *698:24 0
45 *525:28 *699:14 1.44062e-05
46 *525:28 *735:847 0.000271333
47 *525:28 *739:10 0
48 *525:28 *739:34 0
49 *525:28 *741:16 0
50 *525:36 *8944:B1 0.000131069
51 *525:36 *8979:B2 1.37328e-05
52 *525:36 *741:16 0.000180395
53 *525:42 *8941:A1 8.65961e-05
54 *525:42 *8944:B1 0
55 *525:42 *527:31 0
56 *525:42 *722:73 8.49205e-05
57 *525:42 *741:16 0.000356978
58 *525:48 *527:22 0.000354329
59 *525:48 *527:31 1.56296e-05
60 *525:48 *722:77 0
61 *525:48 *741:16 0.000174823
62 *525:59 *8940:A1 0.000115767
63 *525:59 *8940:B1 3.18367e-05
64 *525:59 *8946:A1 2.49909e-05
65 *525:59 *8946:B2 4.66108e-05
66 *525:59 *8953:A1 0.000193806
67 *525:59 *527:16 6.1357e-05
68 *525:96 *8942:B2 0.000108462
69 *525:96 *8949:A1 8.12462e-06
70 *525:96 *9074:RESET_B 0
71 *8707:C1 *525:8 0
72 *8707:C1 *525:96 0
73 *8937:A *525:8 3.59997e-05
74 *9101:D *525:48 0.000181698
75 *9103:D *525:48 5.21046e-05
76 *9106:D *525:28 2.75145e-05
77 *9106:D *525:36 2.7441e-05
78 *9107:D *8945:A2 1.08758e-05
79 *9129:D *525:28 9.50342e-06
80 *345:87 *525:28 7.94582e-05
81 *345:98 *525:28 3.52139e-06
*RES
1 *8936:Y *525:8 10.7175 
2 *525:8 *525:28 25.8525 
3 *525:28 *525:36 7.37 
4 *525:36 *525:42 6.98 
5 *525:42 *525:48 12.265 
6 *525:48 *8940:A2 1.6 
7 *525:48 *525:59 3.585 
8 *525:59 *8939:A2 9.785 
9 *525:59 *8946:A2 1.6 
10 *525:42 *8941:A2 1.6 
11 *525:36 *8945:A2 4.395 
12 *525:28 *8944:A2 1.6 
13 *525:8 *525:96 3.0375 
14 *525:96 *8942:A2 4.755 
15 *525:96 *8943:A2 6.405 
*END

*D_NET *526 0.00141526
*CONN
*I *8938:A I *D sky130_fd_sc_hd__buf_2
*I *8937:X O *D sky130_fd_sc_hd__and4_1
*CAP
1 *8938:A 0.000202742
2 *8937:X 0.000202742
3 *8938:A *527:90 0.000166787
4 *8938:A *685:25 0.000308719
5 *8938:A *735:859 7.63204e-05
6 *8937:B *8938:A 8.40213e-05
7 *8937:D *8938:A 0.000139245
8 *347:91 *8938:A 3.74161e-05
9 *347:103 *8938:A 0.000123225
10 *383:51 *8938:A 7.40446e-05
*RES
1 *8937:X *8938:A 13.785 
*END

*D_NET *527 0.0114417
*CONN
*I *8943:B1 I *D sky130_fd_sc_hd__a22o_1
*I *8942:B1 I *D sky130_fd_sc_hd__a22o_1
*I *8946:B1 I *D sky130_fd_sc_hd__a22o_1
*I *8939:B1 I *D sky130_fd_sc_hd__a22o_1
*I *8940:B1 I *D sky130_fd_sc_hd__a22o_1
*I *8944:B1 I *D sky130_fd_sc_hd__a22o_1
*I *8945:B1 I *D sky130_fd_sc_hd__a22o_1
*I *8941:B1 I *D sky130_fd_sc_hd__a22o_1
*I *8938:X O *D sky130_fd_sc_hd__buf_2
*CAP
1 *8943:B1 0.000185003
2 *8942:B1 5.13056e-05
3 *8946:B1 0
4 *8939:B1 0.000130764
5 *8940:B1 5.21881e-05
6 *8944:B1 0.000373237
7 *8945:B1 0
8 *8941:B1 0
9 *8938:X 0
10 *527:90 0.00094616
11 *527:64 0.000160231
12 *527:31 0.000616091
13 *527:22 0.00048899
14 *527:16 0.000497745
15 *527:14 0.000989956
16 *527:4 0.00147092
17 *8939:B1 *8939:A1 0.000357118
18 *8939:B1 *735:215 0.000130065
19 *8939:B1 *735:222 7.01621e-05
20 *8940:B1 *8940:A1 1.16578e-05
21 *8942:B1 *8974:A1 0.00015639
22 *8942:B1 *739:34 5.21706e-05
23 *8943:B1 *8943:B2 4.66108e-05
24 *8943:B1 *8949:A1 0.00022687
25 *8943:B1 *8976:A1 0.000124007
26 *8943:B1 *8978:S 0
27 *8943:B1 *534:68 0
28 *8943:B1 *534:79 0
29 *8944:B1 *8945:B2 2.28346e-05
30 *8944:B1 *740:10 9.8153e-05
31 *8944:B1 *741:16 0
32 *527:14 *8953:A1 0.000453629
33 *527:14 *8983:A2 2.97004e-06
34 *527:14 *8983:B1 7.23602e-05
35 *527:14 *685:25 0.000607461
36 *527:16 *8940:A1 9.27255e-06
37 *527:16 *8953:A1 0.000120655
38 *527:22 *722:73 5.51676e-05
39 *527:22 *722:75 0.000178442
40 *527:22 *722:77 2.66935e-05
41 *527:31 *8941:B2 1.87674e-05
42 *527:31 *722:73 4.27883e-06
43 *527:31 *736:18 2.23342e-05
44 *527:64 *8939:A1 7.10077e-05
45 *527:64 *735:222 3.17506e-05
46 *527:90 *8949:A1 0.000670923
47 *527:90 *8974:A0 0.000373999
48 *527:90 *534:59 0
49 *527:90 *685:25 0.000234674
50 *527:90 *722:12 6.29902e-05
51 *527:90 *735:859 0
52 *8936:A1 *527:90 5.83121e-06
53 *8936:B1 *527:90 1.22762e-05
54 *8937:A *527:90 0.000116165
55 *8937:D *527:90 0.00015997
56 *8938:A *527:90 0.000166787
57 *8942:A2 *8942:B1 1.08758e-05
58 *9102:D *8940:B1 2.30292e-05
59 *9106:D *8944:B1 4.99619e-05
60 *383:51 *527:90 2.65814e-05
61 *502:120 *527:90 0
62 *525:8 *527:90 0
63 *525:36 *8944:B1 0.000131069
64 *525:42 *8944:B1 0
65 *525:42 *527:31 0
66 *525:48 *527:22 0.000354329
67 *525:48 *527:31 1.56296e-05
68 *525:59 *8940:B1 3.18367e-05
69 *525:59 *527:16 6.1357e-05
*RES
1 *8938:X *527:4 1.6 
2 *527:4 *527:14 14.74 
3 *527:14 *527:16 2.52 
4 *527:16 *527:22 9.695 
5 *527:22 *8941:B1 3.6 
6 *527:22 *527:31 4.185 
7 *527:31 *8945:B1 3.6 
8 *527:31 *8944:B1 10.17 
9 *527:16 *8940:B1 2.92 
10 *527:14 *527:64 2.87 
11 *527:64 *8939:B1 7.785 
12 *527:64 *8946:B1 3.6 
13 *527:4 *527:90 17.36 
14 *527:90 *8942:B1 5.085 
15 *527:90 *8943:B1 7.755 
*END

*D_NET *528 0.00102703
*CONN
*I *8948:B1 I *D sky130_fd_sc_hd__a311oi_4
*I *8947:X O *D sky130_fd_sc_hd__o2bb2a_1
*CAP
1 *8948:B1 0.000350568
2 *8947:X 0.000350568
3 *8948:B1 *8947:A2_N 0.000115329
4 *8948:B1 *8948:C1 0
5 *8948:B1 *642:33 0
6 *8948:B1 *723:33 4.63756e-05
7 *8948:B1 *735:369 0.000164189
*RES
1 *8947:X *8948:B1 12.585 
*END

*D_NET *529 0.00562841
*CONN
*I *8951:B1 I *D sky130_fd_sc_hd__a41o_1
*I *8949:B1 I *D sky130_fd_sc_hd__a22o_1
*I *8953:B1 I *D sky130_fd_sc_hd__a22o_1
*I *8952:A2 I *D sky130_fd_sc_hd__a21boi_1
*I *8950:B1 I *D sky130_fd_sc_hd__a22o_1
*I *8948:Y O *D sky130_fd_sc_hd__a311oi_4
*CAP
1 *8951:B1 8.61138e-05
2 *8949:B1 0.0003098
3 *8953:B1 9.99552e-05
4 *8952:A2 9.47825e-05
5 *8950:B1 6.30803e-05
6 *8948:Y 0.000487605
7 *529:57 0.000731793
8 *529:18 0.000305495
9 *529:10 0.000318688
10 *529:8 0.000894584
11 *8949:B1 *8702:A1 8.49205e-05
12 *8949:B1 *8949:A1 2.11084e-05
13 *8949:B1 *8949:B2 3.26889e-05
14 *8949:B1 *8952:B1_N 3.1835e-05
15 *8949:B1 *723:50 0
16 *8949:B1 *748:18 0
17 *8950:B1 *8950:B2 0.000139223
18 *8951:B1 *8702:A1 0.000383652
19 *8951:B1 *8952:B1_N 9.70701e-05
20 *8952:A2 *8952:B1_N 0.000137578
21 *8952:A2 *8953:B2 1.44177e-05
22 *8953:B1 *8953:B2 3.54536e-05
23 *8953:B1 *763:26 0.000191758
24 *529:10 *8952:B1_N 5.78492e-05
25 *529:10 *723:50 0
26 *529:18 *8950:B2 3.74161e-05
27 *529:18 *8952:B1_N 3.24325e-05
28 *529:18 *9112:CLK 3.26889e-05
29 *529:57 *8952:B1_N 0.000269054
30 *529:57 *723:50 0
31 *8895:C *529:57 0
32 *8937:A *8949:B1 0
33 *8948:A3 *529:57 0
34 *8949:A2 *8949:B1 5.35969e-06
35 *8950:A2 *8950:B1 2.10583e-05
36 *8950:A2 *529:18 2.22174e-05
37 *8953:A2 *8953:B1 4.41506e-05
38 *8953:A2 *529:18 0.000109393
39 *9109:D *8949:B1 0
40 *9110:D *8952:A2 7.4027e-05
41 *9111:D *8952:A2 8.53113e-06
42 *9112:D *8953:B1 8.73389e-06
43 *9112:D *529:18 0
44 *383:27 *8951:B1 0.000123225
45 *502:120 *8949:B1 0.000185405
46 *502:120 *529:57 2.05366e-05
47 *505:28 *529:18 1.47347e-05
48 *525:8 *8949:B1 0
*RES
1 *8948:Y *529:8 9.915 
2 *529:8 *529:10 1.38 
3 *529:10 *529:18 5.21 
4 *529:18 *8950:B1 3.1 
5 *529:18 *8952:A2 7.745 
6 *529:10 *8953:B1 6.255 
7 *529:8 *529:57 8.735 
8 *529:57 *8949:B1 11.315 
9 *529:57 *8951:B1 5.155 
*END

*D_NET *530 0.00321228
*CONN
*I *8952:B1_N I *D sky130_fd_sc_hd__a21boi_1
*I *8951:X O *D sky130_fd_sc_hd__a41o_1
*CAP
1 *8952:B1_N 0.00077587
2 *8951:X 0.00077587
3 *8952:B1_N *8950:A1 0.000461242
4 *8952:B1_N *8953:A1 4.47819e-05
5 *8952:B1_N *8953:B2 9.50114e-05
6 *8949:B1 *8952:B1_N 3.1835e-05
7 *8951:B1 *8952:B1_N 9.70701e-05
8 *8952:A2 *8952:B1_N 0.000137578
9 *8953:A2 *8952:B1_N 0.000111155
10 *9110:D *8952:B1_N 0
11 *9111:D *8952:B1_N 4.80285e-05
12 *9112:D *8952:B1_N 0
13 *383:27 *8952:B1_N 2.75229e-05
14 *502:10 *8952:B1_N 7.06865e-05
15 *502:120 *8952:B1_N 0.000176291
16 *529:10 *8952:B1_N 5.78492e-05
17 *529:18 *8952:B1_N 3.24325e-05
18 *529:57 *8952:B1_N 0.000269054
*RES
1 *8951:X *8952:B1_N 23.925 
*END

*D_NET *531 0.0116987
*CONN
*I *8960:B2 I *D sky130_fd_sc_hd__o32a_1
*I *8959:B2 I *D sky130_fd_sc_hd__o32a_1
*I *8962:B2 I *D sky130_fd_sc_hd__o32a_1
*I *8961:B2 I *D sky130_fd_sc_hd__o32a_1
*I *8957:B2 I *D sky130_fd_sc_hd__o32a_1
*I *8958:B2 I *D sky130_fd_sc_hd__o32a_1
*I *8956:B2 I *D sky130_fd_sc_hd__o32a_1
*I *8955:B2 I *D sky130_fd_sc_hd__o32a_1
*I *8954:X O *D sky130_fd_sc_hd__a31o_2
*CAP
1 *8960:B2 0.000213763
2 *8959:B2 1.37047e-05
3 *8962:B2 0
4 *8961:B2 1.11303e-05
5 *8957:B2 0.000115653
6 *8958:B2 0.000106931
7 *8956:B2 0
8 *8955:B2 6.64266e-05
9 *8954:X 0.00125452
10 *531:106 0.00036343
11 *531:97 0.00025047
12 *531:80 0.000612338
13 *531:59 0.000866225
14 *531:38 0.000710858
15 *531:20 0.000180635
16 *531:18 0.00170878
17 *8955:B2 *8956:B1 0.00010339
18 *8957:B2 *8957:B1 0.000122331
19 *8957:B2 *614:56 2.26018e-05
20 *8958:B2 *8958:B1 8.07279e-05
21 *8958:B2 *574:18 8.18626e-05
22 *8960:B2 *8716:A1 1.00941e-05
23 *8960:B2 *8960:B1 0.000171299
24 *8960:B2 *644:37 0.000315678
25 *531:18 *8705:B2 0.000102891
26 *531:18 *8709:B2 0
27 *531:18 *707:78 0
28 *531:20 *8956:B1 4.55864e-06
29 *531:20 *711:101 1.15434e-05
30 *531:38 *8709:A1 0.000314445
31 *531:38 *617:25 0
32 *531:59 *8709:A1 0.000391464
33 *531:59 *617:25 6.42143e-05
34 *531:80 *8709:A1 9.73071e-05
35 *531:80 *617:25 7.02775e-05
36 *531:80 *735:519 4.36185e-05
37 *531:97 *8962:B1 0
38 *531:106 *8959:B1 0.000121643
39 *531:106 *8962:B1 0
40 *531:106 *9121:CLK 4.00541e-06
41 *531:106 *644:90 4.08514e-05
42 *8708:B1 *531:20 0.000127226
43 *8708:B1 *531:38 0.000127924
44 *8904:A1 *531:18 0.000273049
45 *8904:A2 *531:18 1.53674e-05
46 *8907:B1 *531:20 0.000125559
47 *8907:B1 *531:38 0.0004242
48 *8917:A3 *8960:B2 1.7635e-05
49 *8954:B1 *531:18 7.96104e-06
50 *8955:A2 *8955:B2 8.99542e-05
51 *8957:A3 *8957:B2 4.9253e-06
52 *8958:A2 *8957:B2 2.94433e-05
53 *8958:A2 *8958:B2 4.67423e-05
54 *8959:A2 *8959:B2 4.66108e-05
55 *8959:A2 *531:106 1.08758e-05
56 *8961:A2 *8961:B2 4.99619e-05
57 *8962:A1 *531:97 4.66108e-05
58 *8962:A1 *531:106 0.00018179
59 *8962:A2 *531:106 3.57349e-05
60 *9121:D *531:97 0.000155497
61 *234:34 *531:80 0
62 *335:55 *531:18 9.82856e-06
63 *351:33 *8959:B2 2.75229e-05
64 *351:33 *531:106 1.46744e-05
65 *352:50 *531:38 9.95272e-05
66 *352:60 *531:20 5.46877e-05
67 *352:62 *8955:B2 8.09021e-06
68 *383:101 *531:18 7.38329e-05
69 *509:45 *8960:B2 1.62783e-05
70 *509:54 *531:106 0.000406935
71 *509:60 *531:80 1.7635e-05
72 *509:60 *531:97 0.000157322
73 *509:77 *8957:B2 5.4155e-06
74 *510:14 *531:80 9.82856e-06
75 *510:14 *531:97 8.34426e-05
76 *510:108 *531:38 1.14559e-05
77 *510:129 *8955:B2 4.55864e-06
78 *510:129 *531:20 7.17021e-05
79 *512:12 *531:18 0
80 *512:48 *8960:B2 1.7635e-05
81 *514:20 *531:80 0.000123256
82 *519:14 *8961:B2 1.83756e-05
*RES
1 *8954:X *531:18 8.69657 
2 *531:18 *531:20 3.2925 
3 *531:20 *8955:B2 5.745 
4 *531:20 *8956:B2 3.6 
5 *531:18 *531:38 9.1575 
6 *531:38 *8958:B2 6.255 
7 *531:38 *531:59 6.27 
8 *531:59 *8957:B2 5.79 
9 *531:59 *531:80 4.35873 
10 *531:80 *8961:B2 4.05 
11 *531:80 *531:97 5.735 
12 *531:97 *8962:B2 1.6 
13 *531:97 *531:106 5.295 
14 *531:106 *8959:B2 2.05 
15 *531:106 *8960:B2 7.6274 
*END

*D_NET *532 0.00124951
*CONN
*I *8964:A I *D sky130_fd_sc_hd__clkbuf_4
*I *9021:A2 I *D sky130_fd_sc_hd__a22o_1
*I *8963:Y O *D sky130_fd_sc_hd__nor3_1
*CAP
1 *8964:A 0
2 *9021:A2 0.000138741
3 *8963:Y 0.000171766
4 *532:8 0.000310507
5 *9021:A2 *9016:B1_N 0.000239807
6 *9021:A2 *9021:A1 0
7 *9021:A2 *9021:B2 0.000241483
8 *9021:A2 *534:19 0
9 *9021:A2 *700:8 0
10 *9021:A2 *701:20 1.0183e-05
11 *532:8 *8963:C 4.82919e-05
12 *532:8 *537:16 8.87273e-05
*RES
1 *8963:Y *532:8 4.48 
2 *532:8 *9021:A2 9.41 
3 *532:8 *8964:A 1.6 
*END

*D_NET *533 0.0119839
*CONN
*I *8977:A2 I *D sky130_fd_sc_hd__a22o_1
*I *8975:A2 I *D sky130_fd_sc_hd__a22o_1
*I *8979:A2 I *D sky130_fd_sc_hd__a22o_1
*I *8981:A2 I *D sky130_fd_sc_hd__a22o_1
*I *8973:A2 I *D sky130_fd_sc_hd__a22o_1
*I *8983:A2 I *D sky130_fd_sc_hd__a22o_1
*I *8971:A2 I *D sky130_fd_sc_hd__a22o_1
*I *8969:A2 I *D sky130_fd_sc_hd__a22o_1
*I *9018:A2 I *D sky130_fd_sc_hd__a22o_1
*I *9015:A2 I *D sky130_fd_sc_hd__a22o_1
*I *8964:X O *D sky130_fd_sc_hd__clkbuf_4
*CAP
1 *8977:A2 0.000204595
2 *8975:A2 0
3 *8979:A2 0.000152484
4 *8981:A2 0.000247565
5 *8973:A2 0
6 *8983:A2 0.00035985
7 *8971:A2 0
8 *8969:A2 1.3091e-05
9 *9018:A2 0
10 *9015:A2 0.000177311
11 *8964:X 0.000102053
12 *533:122 0.000363575
13 *533:101 0.000496211
14 *533:84 0.000527513
15 *533:75 0.000382177
16 *533:58 0.000672984
17 *533:49 0.000371504
18 *533:36 0.000707048
19 *533:12 0.000434255
20 *533:6 0.00070761
21 *8969:A2 *8969:A1 1.83756e-05
22 *8969:A2 *8969:B1 4.82863e-05
23 *8977:A2 *8975:A1 8.49205e-05
24 *8977:A2 *8977:B1 0.000110872
25 *8977:A2 *8978:A0 0.000208484
26 *8977:A2 *8978:S 3.74769e-05
27 *8977:A2 *9126:CLK 8.08439e-05
28 *8977:A2 *697:10 9.50342e-06
29 *8979:A2 *8979:A1 5.67167e-05
30 *8979:A2 *8979:B1 1.91597e-05
31 *8979:A2 *537:84 0.000328534
32 *8979:A2 *537:130 8.49205e-05
33 *8979:A2 *698:14 2.30292e-05
34 *8979:A2 *698:24 0.00014519
35 *8981:A2 *8726:B2 0.000241738
36 *8981:A2 *8980:S 0.000161529
37 *8981:A2 *8981:A1 0.000136497
38 *8981:A2 *8981:B2 5.4155e-06
39 *8983:A2 *8953:A1 0.000345353
40 *8983:A2 *8983:B1 0
41 *8983:A2 *534:114 0.000115357
42 *8983:A2 *537:50 2.97004e-06
43 *8983:A2 *537:67 6.23141e-05
44 *9015:A2 *9015:B1 4.51825e-06
45 *9015:A2 *9015:B2 9.27255e-06
46 *9015:A2 *9017:A2 3.26889e-05
47 *9015:A2 *9018:B1 1.66733e-05
48 *9015:A2 *9018:B2 8.01019e-05
49 *9015:A2 *683:16 0.000107528
50 *533:6 *537:16 0.000153217
51 *533:12 *9015:B2 0
52 *533:12 *9017:A2 0.000138749
53 *533:12 *9018:B1 0.000124007
54 *533:12 *537:16 0.000163204
55 *533:36 *8969:B1 0.000139238
56 *533:36 *537:16 0
57 *533:36 *700:8 0
58 *533:49 *8732:A1 1.34361e-05
59 *533:49 *8969:B1 2.92496e-05
60 *533:49 *8971:B1 9.17274e-05
61 *533:49 *8982:A1 1.1071e-05
62 *533:49 *9123:CLK 0
63 *533:49 *534:114 0
64 *533:49 *686:39 6.03272e-05
65 *533:49 *700:8 0
66 *533:49 *722:26 0
67 *533:58 *8982:A1 2.46185e-05
68 *533:75 *8973:A1 4.0031e-05
69 *533:75 *8973:B1 2.69493e-05
70 *533:75 *8982:A1 4.62396e-05
71 *533:75 *537:71 0
72 *533:84 *537:82 0
73 *533:101 *537:82 0
74 *533:101 *537:130 1.52184e-05
75 *533:122 *8975:A1 2.16833e-05
76 *533:122 *8977:B1 5.83121e-06
77 *533:122 *8977:B2 1.4174e-05
78 *8720:A2 *533:101 0.00025732
79 *8720:B1 *8979:A2 0.000160635
80 *8720:B1 *533:122 0.000138555
81 *8733:C1 *533:49 2.05571e-05
82 *9126:D *8977:A2 0
83 *9170:D *9015:A2 8.8266e-05
84 *345:102 *533:49 4.47537e-05
85 *345:102 *533:58 7.33689e-05
86 *345:102 *533:75 0.000642228
87 *345:102 *533:84 0.000155194
88 *345:102 *533:101 9.54469e-05
89 *525:28 *8981:A2 0.000687532
90 *527:14 *8983:A2 2.97004e-06
*RES
1 *8964:X *533:6 3.085 
2 *533:6 *533:12 4.53 
3 *533:12 *9015:A2 5.56 
4 *533:12 *9018:A2 1.6 
5 *533:6 *533:36 7.715 
6 *533:36 *8969:A2 4.05 
7 *533:36 *533:49 6.42 
8 *533:49 *8971:A2 3.6 
9 *533:49 *533:58 0.87 
10 *533:58 *8983:A2 13.465 
11 *533:58 *533:75 7.5 
12 *533:75 *8973:A2 3.6 
13 *533:75 *533:84 1.89 
14 *533:84 *8981:A2 12.36 
15 *533:84 *533:101 6.185 
16 *533:101 *8979:A2 7.015 
17 *533:101 *533:122 3 
18 *533:122 *8975:A2 1.6 
19 *533:122 *8977:A2 10.58 
*END

*D_NET *534 0.0134015
*CONN
*I *8980:S I *D sky130_fd_sc_hd__mux2_1
*I *8982:S I *D sky130_fd_sc_hd__mux2_1
*I *8966:S I *D sky130_fd_sc_hd__mux2_1
*I *8976:S I *D sky130_fd_sc_hd__mux2_1
*I *8978:S I *D sky130_fd_sc_hd__mux2_1
*I *8974:S I *D sky130_fd_sc_hd__mux2_1
*I *8972:S I *D sky130_fd_sc_hd__mux2_1
*I *8970:S I *D sky130_fd_sc_hd__mux2_1
*I *9014:A I *D sky130_fd_sc_hd__or2b_1
*I *9020:A I *D sky130_fd_sc_hd__or3_1
*I *8965:X O *D sky130_fd_sc_hd__clkbuf_4
*CAP
1 *8980:S 0.00033658
2 *8982:S 0
3 *8966:S 0
4 *8976:S 6.07084e-05
5 *8978:S 0.000368095
6 *8974:S 4.55494e-05
7 *8972:S 0
8 *8970:S 1.36534e-05
9 *9014:A 0.000192071
10 *9020:A 5.31193e-05
11 *8965:X 0.000332725
12 *534:114 0.000904214
13 *534:79 0.000553091
14 *534:68 0.000427673
15 *534:59 0.000584069
16 *534:44 0.000509396
17 *534:40 0.000572176
18 *534:34 0.0010709
19 *534:19 0.000485205
20 *534:8 0.000578376
21 *8970:S *8970:A0 4.66108e-05
22 *8974:S *8974:A0 5.05437e-05
23 *8974:S *739:34 0.000163204
24 *8976:S *8975:A1 2.75229e-05
25 *8976:S *8976:A1 2.11084e-05
26 *8978:S *8977:B1 0
27 *8978:S *8978:A0 0.000234674
28 *8978:S *9126:CLK 3.54536e-05
29 *8978:S *738:12 0
30 *8980:S *8726:B2 0.000161529
31 *8980:S *8982:A0 0.000295708
32 *8980:S *537:71 0.000219657
33 *8980:S *537:82 5.56058e-05
34 *9020:A *9021:A1 2.42236e-05
35 *9020:A *9021:B1 7.23533e-05
36 *9020:A *683:28 7.55313e-05
37 *9020:A *716:24 0
38 *534:8 *9021:B2 0.000154196
39 *534:8 *701:20 4.99619e-05
40 *534:19 *9017:B1 0.000112123
41 *534:19 *9021:B1 7.23602e-05
42 *534:19 *537:16 5.13155e-05
43 *534:19 *683:16 0
44 *534:19 *683:24 2.06083e-05
45 *534:19 *683:26 6.02123e-05
46 *534:19 *683:28 3.76596e-05
47 *534:34 *537:16 0.000116629
48 *534:40 *763:26 0.000280954
49 *534:44 *8966:A1 0.000469302
50 *534:44 *685:25 4.76263e-05
51 *534:44 *693:21 0.000402755
52 *534:59 *8972:A0 1.14559e-05
53 *534:59 *685:25 0.000278971
54 *534:59 *693:21 2.73058e-05
55 *534:59 *722:12 4.18603e-06
56 *534:59 *735:859 0.000509781
57 *534:59 *735:861 6.04396e-05
58 *534:68 *8974:A0 0
59 *534:68 *9104:CLK 3.39526e-05
60 *534:68 *722:12 8.62516e-05
61 *534:68 *735:849 0.000195548
62 *534:68 *735:859 0.000147958
63 *534:68 *735:892 0.000184059
64 *534:79 *8975:B1 0
65 *534:79 *8977:B1 0
66 *534:114 *8732:A1 0
67 *534:114 *8982:A1 0
68 *534:114 *537:16 0.000208424
69 *534:114 *537:50 0
70 *534:114 *537:71 6.1265e-05
71 *8692:B1 *8970:S 4.66108e-05
72 *8720:B1 *534:68 0
73 *8720:B1 *534:79 0
74 *8937:B *534:59 0.000118527
75 *8943:B1 *8978:S 0
76 *8943:B1 *534:68 0
77 *8943:B1 *534:79 0
78 *8977:A2 *8978:S 3.74769e-05
79 *8981:A2 *8980:S 0.000161529
80 *8983:A2 *534:114 0.000115357
81 *9021:A2 *534:19 0
82 *9126:D *8978:S 7.23602e-05
83 *9130:D *534:114 0.000160658
84 *9171:D *9014:A 0.000117116
85 *9171:D *534:19 4.05358e-05
86 *9171:D *534:34 3.57846e-05
87 *9172:D *534:8 0.00019637
88 *208:23 *534:44 0
89 *345:87 *534:68 8.66976e-06
90 *347:85 *534:59 2.23485e-05
91 *347:91 *534:59 1.1561e-05
92 *527:90 *534:59 0
93 *533:49 *534:114 0
*RES
1 *8965:X *534:8 8.19 
2 *534:8 *9020:A 5.235 
3 *534:8 *534:19 4.185 
4 *534:19 *9014:A 6.84 
5 *534:19 *534:34 2.4 
6 *534:34 *534:40 8.93 
7 *534:40 *534:44 7.97 
8 *534:44 *8970:S 4.05 
9 *534:44 *534:59 8.82 
10 *534:59 *8972:S 3.6 
11 *534:59 *534:68 6.48 
12 *534:68 *8974:S 5.085 
13 *534:68 *534:79 1.89 
14 *534:79 *8978:S 10.32 
15 *534:79 *8976:S 4.74 
16 *534:40 *8966:S 1.6 
17 *534:34 *534:114 10.56 
18 *534:114 *8982:S 3.6 
19 *534:114 *8980:S 13.35 
*END

*D_NET *535 0.00100297
*CONN
*I *8969:B1 I *D sky130_fd_sc_hd__a22o_1
*I *8966:X O *D sky130_fd_sc_hd__mux2_1
*CAP
1 *8969:B1 0.000298041
2 *8966:X 0.000298041
3 *8969:B1 *8969:A1 1.9405e-05
4 *8969:B1 *700:8 0
5 *8969:B1 *763:26 0.000164874
6 *8969:A2 *8969:B1 4.82863e-05
7 *9123:D *8969:B1 5.83121e-06
8 *533:36 *8969:B1 0.000139238
9 *533:49 *8969:B1 2.92496e-05
*RES
1 *8966:X *8969:B1 12.06 
*END

*D_NET *536 0.00194698
*CONN
*I *8968:A I *D sky130_fd_sc_hd__buf_2
*I *9021:B2 I *D sky130_fd_sc_hd__a22o_1
*I *8967:X O *D sky130_fd_sc_hd__o21a_1
*CAP
1 *8968:A 0.000181049
2 *9021:B2 0.000177501
3 *8967:X 8.65625e-06
4 *536:6 0.000367207
5 *8968:A *8963:B 7.71016e-05
6 *8968:A *8967:A1 2.15295e-05
7 *8968:A *701:20 1.19928e-05
8 *9021:B2 *9016:B1_N 0.000147081
9 *9021:B2 *682:34 1.33347e-05
10 *9021:B2 *701:20 0.000158072
11 *536:6 *701:20 3.66286e-05
12 *8967:B1 *8968:A 0.00011737
13 *9021:A2 *9021:B2 0.000241483
14 *9172:D *9021:B2 0.000233781
15 *534:8 *9021:B2 0.000154196
*RES
1 *8967:X *536:6 2.05 
2 *536:6 *9021:B2 7.93 
3 *536:6 *8968:A 9.335 
*END

*D_NET *537 0.0118044
*CONN
*I *8969:B2 I *D sky130_fd_sc_hd__a22o_1
*I *8971:B2 I *D sky130_fd_sc_hd__a22o_1
*I *8977:B2 I *D sky130_fd_sc_hd__a22o_1
*I *8975:B2 I *D sky130_fd_sc_hd__a22o_1
*I *8981:B2 I *D sky130_fd_sc_hd__a22o_1
*I *8979:B2 I *D sky130_fd_sc_hd__a22o_1
*I *8973:B2 I *D sky130_fd_sc_hd__a22o_1
*I *8983:B2 I *D sky130_fd_sc_hd__a22o_1
*I *9018:B2 I *D sky130_fd_sc_hd__a22o_1
*I *9015:B1 I *D sky130_fd_sc_hd__a22o_1
*I *8968:X O *D sky130_fd_sc_hd__buf_2
*CAP
1 *8969:B2 0
2 *8971:B2 0
3 *8977:B2 0.000234392
4 *8975:B2 1.68412e-05
5 *8981:B2 0.000412776
6 *8979:B2 7.87463e-05
7 *8973:B2 0
8 *8983:B2 2.12116e-05
9 *9018:B2 3.21469e-05
10 *9015:B1 2.63876e-05
11 *8968:X 0.000666156
12 *537:130 0.000468776
13 *537:84 0.000801832
14 *537:82 0.000896033
15 *537:71 0.000729789
16 *537:67 0.000530333
17 *537:50 0.000444888
18 *537:28 0.000605341
19 *537:18 0.000954476
20 *537:16 0.000818875
21 *8975:B2 *8720:A1 0
22 *8977:B2 *8720:A1 0
23 *8977:B2 *8977:B1 0.000177723
24 *8977:B2 *698:14 0
25 *8979:B2 *8979:A1 2.34602e-05
26 *8981:B2 *8945:A1 0.000106368
27 *8981:B2 *8980:A0 9.24378e-05
28 *8981:B2 *8981:B1 3.26889e-05
29 *8981:B2 *741:16 2.87867e-05
30 *8983:B2 *8983:B1 4.82863e-05
31 *9015:B1 *9015:B2 6.68594e-05
32 *9018:B2 *9015:B2 0.000162311
33 *9018:B2 *9018:B1 1.31519e-05
34 *9018:B2 *683:16 9.53428e-06
35 *537:16 *8963:B 2.49909e-05
36 *537:16 *8963:C 2.75229e-05
37 *537:16 *9017:A2 3.72916e-05
38 *537:28 *9014:B_N 0.000107398
39 *537:28 *683:16 0
40 *537:28 *735:208 0
41 *537:50 *686:8 0
42 *537:67 *8953:A1 0.000309618
43 *537:67 *8983:B1 0.000135801
44 *537:67 *686:8 0
45 *537:67 *686:39 0.000298208
46 *537:71 *8973:B1 5.23024e-05
47 *537:71 *8982:A1 0.000197687
48 *537:82 *9129:RESET_B 0
49 *537:82 *735:909 0
50 *537:84 *8979:A1 4.82863e-05
51 *537:84 *8979:B1 1.33293e-05
52 *537:130 *698:14 7.1932e-06
53 *537:130 *735:909 0
54 *8720:A2 *537:130 0.000101016
55 *8720:B1 *8975:B2 9.03508e-06
56 *8720:B1 *8977:B2 2.05056e-05
57 *8720:B1 *537:130 2.16917e-05
58 *8721:C1 *8977:B2 0
59 *8721:C1 *537:130 1.88904e-05
60 *8979:A2 *537:84 0.000328534
61 *8979:A2 *537:130 8.49205e-05
62 *8980:S *537:71 0.000219657
63 *8980:S *537:82 5.56058e-05
64 *8981:A2 *8981:B2 5.4155e-06
65 *8983:A2 *537:50 2.97004e-06
66 *8983:A2 *537:67 6.23141e-05
67 *9015:A2 *9015:B1 4.51825e-06
68 *9015:A2 *9018:B2 8.01019e-05
69 *9107:D *8981:B2 4.82919e-05
70 *9130:D *537:50 0
71 *9170:D *9015:B1 1.83756e-05
72 *9170:D *9018:B2 9.80943e-06
73 *525:28 *8981:B2 6.65874e-05
74 *525:36 *8979:B2 1.37328e-05
75 *532:8 *537:16 8.87273e-05
76 *533:6 *537:16 0.000153217
77 *533:12 *537:16 0.000163204
78 *533:36 *537:16 0
79 *533:75 *537:71 0
80 *533:84 *537:82 0
81 *533:101 *537:82 0
82 *533:101 *537:130 1.52184e-05
83 *533:122 *8977:B2 1.4174e-05
84 *534:19 *537:16 5.13155e-05
85 *534:34 *537:16 0.000116629
86 *534:114 *537:16 0.000208424
87 *534:114 *537:50 0
88 *534:114 *537:71 6.1265e-05
*RES
1 *8968:X *537:16 19.13 
2 *537:16 *537:18 2.175 
3 *537:18 *537:28 12.85 
4 *537:28 *9015:B1 2.41 
5 *537:28 *9018:B2 3.445 
6 *537:18 *537:50 6.185 
7 *537:50 *8983:B2 4.05 
8 *537:50 *537:67 7.37 
9 *537:67 *537:71 10.265 
10 *537:71 *8973:B2 3.6 
11 *537:71 *537:82 7.715 
12 *537:82 *537:84 4.245 
13 *537:84 *8979:B2 2.92 
14 *537:84 *8981:B2 16.545 
15 *537:82 *537:130 7.615 
16 *537:130 *8975:B2 1.96 
17 *537:130 *8977:B2 10.43 
18 *537:67 *8971:B2 1.6 
19 *537:16 *8969:B2 1.6 
*END

*D_NET *538 0.000696621
*CONN
*I *8971:B1 I *D sky130_fd_sc_hd__a22o_1
*I *8970:X O *D sky130_fd_sc_hd__mux2_1
*CAP
1 *8971:B1 0.000177083
2 *8970:X 0.000177083
3 *8971:B1 *8732:A1 7.23533e-05
4 *8971:B1 *8982:A1 2.95721e-05
5 *8692:A2 *8971:B1 8.49205e-05
6 *8732:A2 *8971:B1 6.38806e-05
7 *533:49 *8971:B1 9.17274e-05
*RES
1 *8970:X *8971:B1 10.155 
*END

*D_NET *539 0.000840777
*CONN
*I *8973:B1 I *D sky130_fd_sc_hd__a22o_1
*I *8972:X O *D sky130_fd_sc_hd__mux2_1
*CAP
1 *8973:B1 0.000223571
2 *8972:X 0.000223571
3 *8973:B1 *8973:A1 4.22926e-05
4 *8973:B1 *687:8 0.00027209
5 *533:75 *8973:B1 2.69493e-05
6 *537:71 *8973:B1 5.23024e-05
*RES
1 *8972:X *8973:B1 10.845 
*END

*D_NET *540 0.000871934
*CONN
*I *8975:B1 I *D sky130_fd_sc_hd__a22o_1
*I *8974:X O *D sky130_fd_sc_hd__mux2_1
*CAP
1 *8975:B1 0.000228026
2 *8974:X 0.000228026
3 *8975:B1 *8977:B1 3.88663e-05
4 *8975:B1 *739:34 0.000241483
5 *8720:B1 *8975:B1 0.000135533
6 *534:79 *8975:B1 0
*RES
1 *8974:X *8975:B1 11.01 
*END

*D_NET *541 0.001072
*CONN
*I *8977:B1 I *D sky130_fd_sc_hd__a22o_1
*I *8976:X O *D sky130_fd_sc_hd__mux2_1
*CAP
1 *8977:B1 0.000258446
2 *8976:X 0.000258446
3 *8977:B1 *8975:A1 1.33293e-05
4 *8977:B1 *8978:A0 0.000208484
5 *8721:C1 *8977:B1 0
6 *8975:B1 *8977:B1 3.88663e-05
7 *8977:A2 *8977:B1 0.000110872
8 *8977:B2 *8977:B1 0.000177723
9 *8978:S *8977:B1 0
10 *533:122 *8977:B1 5.83121e-06
11 *534:79 *8977:B1 0
*RES
1 *8976:X *8977:B1 13.29 
*END

*D_NET *542 0.000858036
*CONN
*I *8979:B1 I *D sky130_fd_sc_hd__a22o_1
*I *8978:X O *D sky130_fd_sc_hd__mux2_1
*CAP
1 *8979:B1 0.000223731
2 *8978:X 0.000223731
3 *8979:B1 *8720:A1 1.37328e-05
4 *8979:B1 *8979:A1 1.47256e-05
5 *8979:B1 *698:14 8.56848e-05
6 *8979:B1 *698:24 0.000237249
7 *8979:B1 *735:909 2.66935e-05
8 *8979:A2 *8979:B1 1.91597e-05
9 *537:84 *8979:B1 1.33293e-05
*RES
1 *8978:X *8979:B1 11.64 
*END

*D_NET *543 0.000496616
*CONN
*I *8981:B1 I *D sky130_fd_sc_hd__a22o_1
*I *8980:X O *D sky130_fd_sc_hd__mux2_1
*CAP
1 *8981:B1 0.000150808
2 *8980:X 0.000150808
3 *8981:B1 *8981:A1 0.000162311
4 *8981:B2 *8981:B1 3.26889e-05
*RES
1 *8980:X *8981:B1 5.39 
*END

*D_NET *544 0.000718288
*CONN
*I *8983:B1 I *D sky130_fd_sc_hd__a22o_1
*I *8982:X O *D sky130_fd_sc_hd__mux2_1
*CAP
1 *8983:B1 0.00023092
2 *8982:X 0.00023092
3 *8983:B1 *8939:A1 0
4 *8983:B1 *8983:A1 0
5 *8983:B1 *692:10 0
6 *8983:A2 *8983:B1 0
7 *8983:B2 *8983:B1 4.82863e-05
8 *527:14 *8983:B1 7.23602e-05
9 *537:67 *8983:B1 0.000135801
*RES
1 *8982:X *8983:B1 11.265 
*END

*D_NET *545 0.00170504
*CONN
*I *8986:A2 I *D sky130_fd_sc_hd__o211ai_1
*I *8995:A2 I *D sky130_fd_sc_hd__o21a_1
*I *8984:Y O *D sky130_fd_sc_hd__a21boi_1
*CAP
1 *8986:A2 0.00019586
2 *8995:A2 0.000343702
3 *8984:Y 5.40655e-05
4 *545:8 0.000593628
5 *8986:A2 *707:151 0.000236459
6 *8986:A2 *759:18 3.47837e-05
7 *8986:A2 *761:28 4.84393e-05
8 *545:8 *759:18 6.73665e-05
9 *545:8 *761:28 9.428e-05
10 *9132:D *8995:A2 3.64522e-05
*RES
1 *8984:Y *545:8 5.49 
2 *545:8 *8995:A2 8.19 
3 *545:8 *8986:A2 6.9 
*END

*D_NET *546 0.00121059
*CONN
*I *8986:B1 I *D sky130_fd_sc_hd__o211ai_1
*I *8985:Y O *D sky130_fd_sc_hd__o311ai_1
*CAP
1 *8986:B1 0.000399658
2 *8985:Y 0.000399658
3 *8986:B1 *8991:B 0.000189367
4 *8986:B1 *8995:B1 0.000113606
5 *8986:B1 *9189:A 0
6 *8986:B1 *620:31 6.00111e-05
7 *8986:B1 *620:58 4.82863e-05
8 *8986:B1 *707:136 0
9 *8986:B1 *759:18 0
*RES
1 *8985:Y *8986:B1 14.145 
*END

*D_NET *547 0.00275504
*CONN
*I *8988:A2 I *D sky130_fd_sc_hd__o21ai_1
*I *8991:B I *D sky130_fd_sc_hd__nor2_1
*I *8987:Y O *D sky130_fd_sc_hd__nand4_1
*CAP
1 *8988:A2 0
2 *8991:B 0.000238114
3 *8987:Y 0.000549741
4 *547:10 0.000787854
5 *8991:B *8994:A 0.000136877
6 *8991:B *8995:B1 0
7 *8991:B *759:18 6.43553e-05
8 *547:10 *8994:A 1.79098e-05
9 *547:10 *8995:B1 7.58949e-05
10 *547:10 *759:12 7.00066e-05
11 *8986:B1 *8991:B 0.000189367
12 *8991:A *8991:B 4.26238e-05
13 *263:14 *547:10 8.32613e-05
14 *263:25 *547:10 2.93678e-05
15 *436:10 *547:10 0.000355875
16 *436:29 *547:10 0.00011379
17 *441:12 *547:10 0
18 *441:37 *547:10 0
*RES
1 *8987:Y *547:10 13.62 
2 *547:10 *8991:B 8.97 
3 *547:10 *8988:A2 3.6 
*END

*D_NET *548 0.000392723
*CONN
*I *8989:B I *D sky130_fd_sc_hd__nand3b_1
*I *8988:Y O *D sky130_fd_sc_hd__o21ai_1
*CAP
1 *8989:B 0.000103814
2 *8988:Y 0.000103814
3 *8989:B *8989:A_N 5.46217e-05
4 *8989:B *620:29 3.94429e-05
5 *8989:B *620:31 7.00889e-06
6 *441:37 *8989:B 8.40213e-05
*RES
1 *8988:Y *8989:B 5.39 
*END

*D_NET *549 0.000792387
*CONN
*I *8995:A1 I *D sky130_fd_sc_hd__o21a_1
*I *8989:Y O *D sky130_fd_sc_hd__nand3b_1
*CAP
1 *8995:A1 0.000208846
2 *8989:Y 0.000208846
3 *8995:A1 *8995:B1 6.44051e-05
4 *8995:A1 *9189:A 0.000113615
5 *8995:A1 *620:29 0.000124895
6 *9132:D *8995:A1 7.17811e-05
*RES
1 *8989:Y *8995:A1 11.76 
*END

*D_NET *550 0.00201316
*CONN
*I *8994:A I *D sky130_fd_sc_hd__nand3_1
*I *8990:Y O *D sky130_fd_sc_hd__nand2_1
*CAP
1 *8994:A 0.000489305
2 *8990:Y 0.000489305
3 *8994:A *8994:B 5.08982e-05
4 *8994:A *759:18 8.95174e-05
5 *8985:A2 *8994:A 6.6594e-05
6 *8985:A3 *8994:A 0.00019637
7 *8990:A *8994:A 8.23457e-05
8 *8991:A *8994:A 0.000155234
9 *8991:B *8994:A 0.000136877
10 *436:10 *8994:A 0.000134516
11 *436:29 *8994:A 0.000104287
12 *547:10 *8994:A 1.79098e-05
*RES
1 *8990:Y *8994:A 16.785 
*END

*D_NET *551 0.00187885
*CONN
*I *8994:B I *D sky130_fd_sc_hd__nand3_1
*I *8991:Y O *D sky130_fd_sc_hd__nor2_1
*CAP
1 *8994:B 0.000311336
2 *8991:Y 0.000311336
3 *8994:B *571:28 0.000110482
4 *8994:B *759:12 0
5 *8994:B *759:18 0.000440357
6 *8803:A *8994:B 9.50342e-06
7 *8985:A2 *8994:B 4.55966e-05
8 *8985:A3 *8994:B 0.000302631
9 *8990:A *8994:B 8.40269e-05
10 *8994:A *8994:B 5.08982e-05
11 *436:50 *8994:B 9.30787e-05
12 *442:24 *8994:B 5.53249e-06
13 *445:14 *8994:B 9.87969e-05
14 *445:44 *8994:B 1.52776e-05
*RES
1 *8991:Y *8994:B 15.21 
*END

*D_NET *552 0.00236115
*CONN
*I *8993:A1 I *D sky130_fd_sc_hd__a21oi_1
*I *8992:Y O *D sky130_fd_sc_hd__o311ai_1
*CAP
1 *8993:A1 0.000612154
2 *8992:Y 0.000612154
3 *8993:A1 *8993:A2 4.30228e-05
4 *8993:A1 *8994:C 0.000149233
5 *8588:A3 *8993:A1 4.82863e-05
6 *8752:B1 *8993:A1 0
7 *8752:C1 *8993:A1 0.000231564
8 *8788:A2 *8993:A1 7.38021e-05
9 *8788:B1 *8993:A1 0.000136884
10 *8788:B2 *8993:A1 5.55371e-05
11 *8806:A *8993:A1 7.81143e-05
12 *8993:B1 *8993:A1 0.000122435
13 *243:29 *8993:A1 4.03077e-06
14 *249:96 *8993:A1 5.53249e-06
15 *249:105 *8993:A1 3.86529e-05
16 *249:135 *8993:A1 0.000149749
17 *252:61 *8993:A1 0
*RES
1 *8992:Y *8993:A1 20.55 
*END

*D_NET *553 0.00192379
*CONN
*I *8994:C I *D sky130_fd_sc_hd__nand3_1
*I *8993:Y O *D sky130_fd_sc_hd__a21oi_1
*CAP
1 *8994:C 0.000493893
2 *8993:Y 0.000493893
3 *8994:C *8590:B1 0
4 *8994:C *8995:B1 4.9253e-06
5 *8994:C *620:72 0.000274668
6 *8994:C *761:28 0
7 *8592:A2 *8994:C 6.05917e-05
8 *8788:A2 *8994:C 0
9 *8806:A *8994:C 0.000286642
10 *8993:A1 *8994:C 0.000149233
11 *189:20 *8994:C 0
12 *195:10 *8994:C 0
13 *252:61 *8994:C 0.000159947
*RES
1 *8993:Y *8994:C 18.15 
*END

*D_NET *554 0.00266367
*CONN
*I *8995:B1 I *D sky130_fd_sc_hd__o21a_1
*I *8994:Y O *D sky130_fd_sc_hd__nand3_1
*CAP
1 *8995:B1 0.000748119
2 *8994:Y 0.000748119
3 *8995:B1 *9189:A 0
4 *8995:B1 *761:28 7.06865e-05
5 *8986:B1 *8995:B1 0.000113606
6 *8989:C *8995:B1 1.65192e-05
7 *8991:B *8995:B1 0
8 *8994:C *8995:B1 4.9253e-06
9 *8995:A1 *8995:B1 6.44051e-05
10 *9132:D *8995:B1 0.000136877
11 *430:18 *8995:B1 0.000526922
12 *441:37 *8995:B1 0.000157595
13 *547:10 *8995:B1 7.58949e-05
*RES
1 *8994:Y *8995:B1 24.295 
*END

*D_NET *555 0.000426378
*CONN
*I *8998:S I *D sky130_fd_sc_hd__mux2_1
*I *8997:X O *D sky130_fd_sc_hd__and2b_1
*CAP
1 *8998:S 0.000124534
2 *8997:X 0.000124534
3 *8998:S *8510:A 5.83121e-06
4 *8998:S *8997:A_N 0.000113255
5 *8998:S *8997:B 3.00381e-05
6 *8998:S *642:12 2.8185e-05
*RES
1 *8997:X *8998:S 5.72 
*END

*D_NET *556 0.000870189
*CONN
*I *8999:A I *D sky130_fd_sc_hd__clkbuf_1
*I *8998:X O *D sky130_fd_sc_hd__mux2_1
*CAP
1 *8999:A 0.000254322
2 *8998:X 0.000254322
3 *8999:A *642:33 0.000361546
*RES
1 *8998:X *8999:A 7.025 
*END

*D_NET *557 0.000809016
*CONN
*I *9001:B1 I *D sky130_fd_sc_hd__o211a_1
*I *9000:X O *D sky130_fd_sc_hd__or2b_1
*CAP
1 *9001:B1 0.000344005
2 *9000:X 0.000344005
3 *9001:B1 *8807:B 0
4 *9001:B1 *9143:CLK 6.97034e-05
5 *9001:B1 *735:290 5.13029e-05
*RES
1 *9000:X *9001:B1 11.7 
*END

*D_NET *558 0.00106347
*CONN
*I *9003:B1 I *D sky130_fd_sc_hd__a21o_1
*I *9002:X O *D sky130_fd_sc_hd__a21o_1
*CAP
1 *9003:B1 0.000207922
2 *9002:X 0.000207922
3 *9003:B1 *8608:B 5.61451e-05
4 *9003:B1 *8630:A2 8.34323e-05
5 *9003:B1 *9005:A1 0.00013521
6 *9003:B1 *9144:SET_B 0.000153522
7 *9003:B1 *645:8 2.58386e-05
8 *9144:D *9003:B1 0.000138544
9 *292:28 *9003:B1 5.83121e-06
10 *292:38 *9003:B1 4.91041e-05
*RES
1 *9002:X *9003:B1 12.51 
*END

*D_NET *559 0.00162307
*CONN
*I *9005:B1 I *D sky130_fd_sc_hd__a21o_1
*I *9004:X O *D sky130_fd_sc_hd__a21o_1
*CAP
1 *9005:B1 0.000310189
2 *9004:X 0.000310189
3 *9005:B1 *8608:B 0.000246772
4 *9005:B1 *9005:A1 0.000140142
5 *9005:B1 *614:56 0.000121437
6 *9005:B1 *644:90 0
7 *8658:A *9005:B1 3.23663e-05
8 *9005:A2 *9005:B1 8.65905e-05
9 *9144:D *9005:B1 0.00013687
10 *292:38 *9005:B1 3.57349e-05
11 *292:49 *9005:B1 0.000202775
*RES
1 *9004:X *9005:B1 14.94 
*END

*D_NET *560 0.00303304
*CONN
*I *9007:B1 I *D sky130_fd_sc_hd__a21o_1
*I *9006:X O *D sky130_fd_sc_hd__a21o_1
*CAP
1 *9007:B1 0.000781619
2 *9006:X 0.000781619
3 *9007:B1 *9005:A1 0.000212568
4 *9007:B1 *9145:CLK 6.33239e-05
5 *9007:B1 *9145:SET_B 8.34323e-05
6 *9007:B1 *9185:A 0.00015639
7 *9007:B1 *612:42 0.000120493
8 *9007:B1 *614:56 4.82863e-05
9 *9007:B1 *645:10 1.65192e-05
10 *9007:B1 *646:33 0.000176324
11 *8608:A *9007:B1 4.30213e-05
12 *9002:B1 *9007:B1 6.28498e-05
13 *9004:A2 *9007:B1 0.000112836
14 *9007:A2 *9007:B1 0.000198182
15 *237:95 *9007:B1 0.000130106
16 *237:121 *9007:B1 4.54719e-05
*RES
1 *9006:X *9007:B1 22.125 
*END

*D_NET *561 0.00238569
*CONN
*I *9009:B1 I *D sky130_fd_sc_hd__a21o_1
*I *9008:X O *D sky130_fd_sc_hd__a21o_1
*CAP
1 *9009:B1 0.000423121
2 *9008:X 0.000423121
3 *9009:B1 *8747:A1 0
4 *9009:B1 *9009:A1 0.000130453
5 *9009:B1 *9012:A1 0
6 *9009:B1 *650:10 0.000132842
7 *9009:B1 *650:18 0.000185405
8 *9009:B1 *707:35 0.000180321
9 *8608:A *9009:B1 0.000750093
10 *9009:A2 *9009:B1 0.00011903
11 *237:71 *9009:B1 4.13092e-05
*RES
1 *9008:X *9009:B1 19.545 
*END

*D_NET *562 0.000497423
*CONN
*I *9011:B1 I *D sky130_fd_sc_hd__a21o_1
*I *9010:X O *D sky130_fd_sc_hd__a21o_1
*CAP
1 *9011:B1 9.84132e-05
2 *9010:X 9.84132e-05
3 *9011:B1 *648:25 0.000116151
4 *9008:A2 *9011:B1 0.000116151
5 *9010:A2 *9011:B1 4.66108e-05
6 *9010:B1 *9011:B1 2.16833e-05
*RES
1 *9010:X *9011:B1 9.375 
*END

*D_NET *563 0.00105781
*CONN
*I *9013:B1 I *D sky130_fd_sc_hd__a21o_1
*I *9012:X O *D sky130_fd_sc_hd__a21o_1
*CAP
1 *9013:B1 0.000258532
2 *9012:X 0.000258532
3 *9013:B1 *9168:CLK 9.1566e-05
4 *9013:B1 *711:78 4.43871e-06
5 *9013:B1 *735:625 5.05437e-05
6 *9168:D *9013:B1 0.000116158
7 *234:22 *9013:B1 0.000154262
8 *275:106 *9013:B1 0.000123773
*RES
1 *9012:X *9013:B1 13.71 
*END

*D_NET *564 0.0009563
*CONN
*I *9015:B2 I *D sky130_fd_sc_hd__a22o_1
*I *9014:X O *D sky130_fd_sc_hd__or2b_1
*CAP
1 *9015:B2 0.000277866
2 *9014:X 0.000277866
3 *9015:B2 *9018:B1 4.99619e-05
4 *9015:B2 *683:16 5.67189e-05
5 *9015:A2 *9015:B2 9.27255e-06
6 *9015:B1 *9015:B2 6.68594e-05
7 *9018:B2 *9015:B2 0.000162311
8 *9170:D *9015:B2 2.66586e-05
9 *9171:D *9015:B2 2.87867e-05
10 *533:12 *9015:B2 0
*RES
1 *9014:X *9015:B2 12.6 
*END

*D_NET *565 0.00082784
*CONN
*I *9017:B1 I *D sky130_fd_sc_hd__a21o_1
*I *9016:Y O *D sky130_fd_sc_hd__o21bai_1
*CAP
1 *9017:B1 0.00024225
2 *9016:Y 0.00024225
3 *9017:B1 *9016:B1_N 0.000231217
4 *534:19 *9017:B1 0.000112123
*RES
1 *9016:Y *9017:B1 10.755 
*END

*D_NET *566 0.000405602
*CONN
*I *9018:B1 I *D sky130_fd_sc_hd__a22o_1
*I *9017:X O *D sky130_fd_sc_hd__a21o_1
*CAP
1 *9018:B1 8.23798e-05
2 *9017:X 8.23798e-05
3 *9018:B1 *683:16 3.70488e-05
4 *9015:A2 *9018:B1 1.66733e-05
5 *9015:B2 *9018:B1 4.99619e-05
6 *9018:B2 *9018:B1 1.31519e-05
7 *533:12 *9018:B1 0.000124007
*RES
1 *9017:X *9018:B1 5.39 
*END

*D_NET *567 0.000543611
*CONN
*I *9020:C I *D sky130_fd_sc_hd__or3_1
*I *9019:X O *D sky130_fd_sc_hd__o21a_1
*CAP
1 *9020:C 7.54595e-05
2 *9019:X 7.54595e-05
3 *9020:C *9019:B1 3.66286e-05
4 *9020:C *9021:A1 6.05513e-05
5 *9020:C *9174:RESET_B 0.000123225
6 *9020:C *684:51 4.99619e-05
7 *9020:C *735:185 0.000122325
*RES
1 *9019:X *9020:C 5.735 
*END

*D_NET *568 0.000491858
*CONN
*I *9021:B1 I *D sky130_fd_sc_hd__a22o_1
*I *9020:X O *D sky130_fd_sc_hd__or3_1
*CAP
1 *9021:B1 8.21711e-05
2 *9020:X 8.21711e-05
3 *9021:B1 *9021:A1 0.000182802
4 *9020:A *9021:B1 7.23533e-05
5 *534:19 *9021:B1 7.23602e-05
*RES
1 *9020:X *9021:B1 9.285 
*END

*D_NET *569 0.000900058
*CONN
*I *9023:C1 I *D sky130_fd_sc_hd__o211a_1
*I *9022:X O *D sky130_fd_sc_hd__a21o_1
*CAP
1 *9023:C1 0.000242873
2 *9022:X 0.000242873
3 *9023:C1 *8518:A1 7.47215e-05
4 *9023:C1 *9022:A1 1.90762e-05
5 *9023:C1 *9022:B1 0.000160635
6 *8807:A *9023:C1 4.92096e-05
7 *9022:A2 *9023:C1 3.23391e-05
8 *9023:B1 *9023:C1 3.00381e-05
9 *9173:D *9023:C1 4.82919e-05
*RES
1 *9022:X *9023:C1 11.46 
*END

*D_NET *570 0.0105078
*CONN
*I *9079:D I *D sky130_fd_sc_hd__dfxtp_1
*I *8697:X O *D sky130_fd_sc_hd__o32a_1
*CAP
1 *9079:D 0.00244055
2 *8697:X 0.00244055
3 *9079:D *8558:A 2.05641e-05
4 *9079:D *9079:CLK 0.000286741
5 *9079:D *571:28 0
6 *9079:D *760:24 0.00221179
7 *9079:D *761:16 0.000171881
8 *8728:A1 *9079:D 1.88656e-05
9 *9178:A *9079:D 0.00287644
10 *208:73 *9079:D 4.03791e-05
*RES
1 *8697:X *9079:D 23.9853 
*END

*D_NET *571 0.0143148
*CONN
*I *9080:D I *D sky130_fd_sc_hd__dfxtp_1
*I *767:DIODE I *D sky130_fd_sc_hd__diode_2
*I *8703:X O *D sky130_fd_sc_hd__o22a_1
*CAP
1 *9080:D 0.000145567
2 *767:DIODE 0
3 *8703:X 0.00626602
4 *571:28 0.00641159
5 *9080:D *9080:CLK 9.66106e-05
6 *571:28 *8722:B2 0
7 *571:28 *9080:CLK 0.000413266
8 *571:28 *577:26 4.66108e-05
9 *571:28 *617:25 4.75576e-05
10 *571:28 *707:10 1.54558e-05
11 *571:28 *759:18 0.000102557
12 *8703:A2 *571:28 4.66108e-05
13 *8703:B1 *571:28 4.9968e-05
14 *8994:B *571:28 0.000110482
15 *9079:D *571:28 0
16 *9178:A *571:28 0
17 *352:107 *571:28 3.33356e-05
18 *425:29 *571:28 0.000529128
*RES
1 *8703:X *571:28 22.5293 
2 *571:28 *767:DIODE 1.6 
3 *571:28 *9080:D 4.00375 
*END

*D_NET *572 0.0125497
*CONN
*I *9081:D I *D sky130_fd_sc_hd__dfxtp_1
*I *768:DIODE I *D sky130_fd_sc_hd__diode_2
*I *8708:X O *D sky130_fd_sc_hd__o22a_1
*CAP
1 *9081:D 0.000171019
2 *768:DIODE 0
3 *8708:X 0.00517901
4 *572:20 0.00535003
5 *9081:D *9081:CLK 0.000180737
6 *572:20 *8703:A1 0.000116151
7 *572:20 *8852:A_N 5.34382e-05
8 *572:20 *8854:A1 0.000190514
9 *572:20 *613:16 0
10 *572:20 *617:25 3.54684e-05
11 *572:20 *619:14 6.83538e-05
12 *572:20 *707:10 0.000594281
13 *572:20 *707:78 4.28257e-05
14 *572:20 *707:132 0
15 *572:20 *759:18 0
16 *8703:B2 *572:20 0.000112123
17 *8708:B2 *572:20 0.000122331
18 *8853:A *572:20 0
19 *8855:A_N *572:20 0
20 *8856:C1 *572:20 0.000217271
21 *9114:D *572:20 0.000116151
22 *9135:D *572:20 0
23 *208:73 *572:20 0
*RES
1 *8708:X *572:20 38.0667 
2 *572:20 *768:DIODE 1.6 
3 *572:20 *9081:D 5.23 
*END

*D_NET *573 0.0121832
*CONN
*I *9082:D I *D sky130_fd_sc_hd__dfxtp_1
*I *8713:X O *D sky130_fd_sc_hd__o21a_1
*CAP
1 *9082:D 0.000434595
2 *8713:X 0.00387663
3 *573:6 0.00431122
4 *9082:D *9082:CLK 0.000351834
5 *9082:D *735:1481 0
6 *573:6 *618:62 0.00310053
7 *8713:A2 *573:6 5.85534e-05
8 *512:26 *573:6 4.98732e-05
*RES
1 *8713:X *573:6 49.66 
2 *573:6 *9082:D 13.445 
*END

*D_NET *574 0.0133897
*CONN
*I *9083:D I *D sky130_fd_sc_hd__dfxtp_1
*I *8717:X O *D sky130_fd_sc_hd__a211o_1
*CAP
1 *9083:D 0.00220361
2 *8717:X 0.0032865
3 *574:18 0.0054901
4 *9083:D *8625:B1 0.000274805
5 *9083:D *8632:A1 0
6 *9083:D *8632:A2 0
7 *9083:D *9083:CLK 0.000182563
8 *9083:D *659:27 0
9 *9083:D *659:40 0
10 *9083:D *659:61 0.000381029
11 *9083:D *661:25 0
12 *9083:D *662:18 1.71013e-05
13 *9083:D *735:1481 0
14 *9083:D *735:1491 0
15 *9083:D *735:1530 0
16 *574:18 *8721:A1 0.000380391
17 *574:18 *8958:B1 0.000128271
18 *574:18 *9139:CLK 0.000365841
19 *574:18 *665:10 0.000145864
20 *8626:A2 *9083:D 8.8266e-05
21 *8629:A *9083:D 4.11666e-05
22 *8717:B1 *574:18 5.39667e-05
23 *8721:A2 *574:18 2.95899e-05
24 *8958:A1 *574:18 0.000113073
25 *8958:A2 *574:18 9.35052e-05
26 *8958:B2 *574:18 8.18626e-05
27 *9117:D *574:18 2.19562e-06
28 *9139:D *574:18 3.00381e-05
29 *281:24 *9083:D 0
*RES
1 *8717:X *574:18 49.6525 
2 *574:18 *9083:D 39.2262 
*END

*D_NET *575 0.0109022
*CONN
*I *9084:D I *D sky130_fd_sc_hd__dfxtp_1
*I *8722:X O *D sky130_fd_sc_hd__o32a_1
*CAP
1 *9084:D 0.00427922
2 *8722:X 0.00427922
3 *9084:D *8722:B2 0.00104641
4 *9084:D *8727:A1 0.000878637
5 *9084:D *8959:B1 0.000102863
6 *9084:D *9084:CLK 5.42019e-05
7 *9084:D *760:24 1.88602e-05
8 *8697:A3 *9084:D 0.000126376
9 *336:12 *9084:D 0
10 *345:23 *9084:D 0.000116416
*RES
1 *8722:X *9084:D 19.5744 
*END

*D_NET *576 0.0067659
*CONN
*I *9085:D I *D sky130_fd_sc_hd__dfxtp_2
*I *8728:X O *D sky130_fd_sc_hd__o32a_1
*CAP
1 *9085:D 0.00170274
2 *8728:X 0.00170274
3 *9085:D *8693:A1 6.2842e-05
4 *9085:D *8709:A1 0
5 *9085:D *8728:B2 0.000774498
6 *9085:D *8911:B2 0
7 *9085:D *9085:CLK 0.000139245
8 *9085:D *713:89 8.7782e-05
9 *9085:D *713:104 8.37714e-05
10 *9085:D *713:112 0
11 *9085:D *713:125 0
12 *9085:D *713:138 0.000664091
13 *8664:A *9085:D 3.68596e-05
14 *8728:A2 *9085:D 0.000118081
15 *8728:A3 *9085:D 1.19928e-05
16 *8728:B1 *9085:D 3.26889e-05
17 *8905:A3 *9085:D 5.08955e-05
18 *8909:A3 *9085:D 0.000600921
19 *8911:A3 *9085:D 0
20 *8958:A2 *9085:D 0.00029977
21 *8958:A3 *9085:D 3.99395e-05
22 *9066:D *9085:D 0
23 *9116:D *9085:D 3.51667e-05
24 *9117:D *9085:D 0.00011852
25 *9120:D *9085:D 6.65057e-05
26 *9161:D *9085:D 0
27 *352:37 *9085:D 2.02487e-05
28 *510:108 *9085:D 0
29 *510:110 *9085:D 0
30 *512:26 *9085:D 9.86532e-05
31 *514:20 *9085:D 1.79483e-05
*RES
1 *8728:X *9085:D 44.8237 
*END

*D_NET *577 0.0112779
*CONN
*I *9086:D I *D sky130_fd_sc_hd__dfxtp_2
*I *8734:X O *D sky130_fd_sc_hd__o32a_1
*CAP
1 *9086:D 0.000617216
2 *8734:X 0.00263172
3 *577:26 0.00324894
4 *9086:D *8508:C 0.000120655
5 *9086:D *8862:A 8.8266e-05
6 *9086:D *8869:A2 0.000203178
7 *9086:D *8869:B1 1.12578e-05
8 *9086:D *637:29 8.65961e-05
9 *577:26 *8506:C 2.17931e-05
10 *577:26 *8512:C1 0.000434322
11 *577:26 *8703:A1 1.83847e-05
12 *577:26 *8865:B1 6.01006e-05
13 *577:26 *8888:A 0.000230429
14 *577:26 *8891:A1 0.00028468
15 *577:26 *9060:CLK 4.21119e-05
16 *577:26 *637:29 0
17 *8509:C *577:26 2.75229e-05
18 *8512:B1 *577:26 4.66108e-05
19 *8608:A *577:26 0.000268734
20 *8703:A2 *577:26 0.000104732
21 *8734:A1 *577:26 3.03775e-05
22 *8862:C *9086:D 4.40777e-05
23 *8867:S *577:26 0.000340209
24 *8870:B *577:26 3.96737e-05
25 *9060:D *577:26 0.000109377
26 *205:12 *577:26 0.000120433
27 *206:8 *577:26 0.000461047
28 *206:16 *577:26 1.33285e-05
29 *209:14 *577:26 0.000678043
30 *211:18 *577:26 8.23457e-05
31 *352:79 *577:26 4.92062e-05
32 *477:20 *9086:D 0.000120655
33 *477:20 *577:26 0.000595235
34 *571:28 *577:26 4.66108e-05
*RES
1 *8734:X *577:26 46.72 
2 *577:26 *9086:D 16.595 
*END

*D_NET *578 0.000573134
*CONN
*I *8557:A I *D sky130_fd_sc_hd__inv_2
*I *9042:Q O *D sky130_fd_sc_hd__dfrtp_1
*CAP
1 *8557:A 0.000269455
2 *9042:Q 0.000269455
3 *8557:A *8558:A 4.18603e-06
4 *8557:A *8729:A 0
5 *8557:A *9042:RESET_B 3.00381e-05
6 *8557:A *9044:RESET_B 0
7 *8557:A *9138:CLK 0
8 *8557:A *735:1221 0
*RES
1 *9042:Q *8557:A 11.325 
*END

*D_NET *579 0.0104315
*CONN
*I *8668:A1 I *D sky130_fd_sc_hd__mux2_1
*I *8669:A2 I *D sky130_fd_sc_hd__o21a_1
*I *8710:B I *D sky130_fd_sc_hd__and4b_1
*I *8898:B2 I *D sky130_fd_sc_hd__a22o_1
*I *9062:Q O *D sky130_fd_sc_hd__dfrtp_2
*CAP
1 *8668:A1 0.000120759
2 *8669:A2 0.000129508
3 *8710:B 0.000885128
4 *8898:B2 0
5 *9062:Q 0.000129068
6 *579:52 0.00209847
7 *579:12 0.00113824
8 *579:6 0.00223039
9 *8668:A1 *8529:C1 4.66108e-05
10 *8669:A2 *621:53 0
11 *8669:A2 *621:79 4.99619e-05
12 *8669:A2 *673:78 4.82919e-05
13 *8710:B *8898:A1 5.92269e-05
14 *8710:B *9073:RESET_B 0.000267155
15 *579:6 *8949:B2 3.81908e-06
16 *579:12 *8898:A1 5.53249e-06
17 *579:12 *9073:CLK 4.41468e-05
18 *579:52 *8725:B 0.000134538
19 *579:52 *8948:C1 0.000252927
20 *579:52 *8951:A4 0.000112123
21 *579:52 *9023:A1 0.000443151
22 *579:52 *642:33 1.74629e-05
23 *579:52 *705:14 0.000134588
24 *579:52 *706:18 0.000252357
25 *579:52 *735:369 0
26 *579:52 *735:419 0
27 *579:52 *742:20 0
28 *8675:A2 *8669:A2 4.94404e-05
29 *8897:A3 *579:52 9.18454e-05
30 *8951:A1 *8710:B 0.000116158
31 *8951:A1 *579:12 0.000422773
32 *9062:D *579:6 4.66826e-05
33 *9062:D *579:12 8.247e-05
34 *9073:D *8710:B 0.000116642
35 *9174:D *579:52 0.000300109
36 *339:55 *8710:B 7.35729e-05
37 *347:49 *8710:B 0.000125144
38 *502:61 *579:52 0.000107154
39 *505:97 *579:12 0.000296081
40 *505:97 *579:52 0
*RES
1 *9062:Q *579:6 3.085 
2 *579:6 *579:12 8.435 
3 *579:12 *8898:B2 3.6 
4 *579:12 *8710:B 16.38 
5 *579:6 *579:52 42.105 
6 *579:52 *8669:A2 5.94 
7 *579:52 *8668:A1 5.43 
*END

*D_NET *580 0.0033391
*CONN
*I *9022:B1 I *D sky130_fd_sc_hd__a21o_1
*I *8555:B I *D sky130_fd_sc_hd__and2_1
*I *9173:Q O *D sky130_fd_sc_hd__dfrtp_1
*CAP
1 *9022:B1 0.000519211
2 *8555:B 0.00025853
3 *9173:Q 7.53866e-05
4 *580:8 0.000853127
5 *8555:B *677:14 0.000146305
6 *8555:B *717:67 0.000279787
7 *8555:B *735:268 5.10957e-05
8 *8555:B *735:270 0.000132096
9 *8555:B *735:274 9.50342e-06
10 *9022:B1 *8493:A3 0
11 *9022:B1 *9022:A1 3.09088e-05
12 *9022:B1 *677:47 0
13 *9022:B1 *677:90 0
14 *9022:B1 *717:53 0.000572609
15 *9022:B1 *735:268 4.75576e-05
16 *580:8 *9173:RESET_B 1.1392e-05
17 *8555:A *8555:B 5.30673e-05
18 *9022:A2 *9022:B1 6.20248e-05
19 *9023:B1 *8555:B 0
20 *9023:C1 *9022:B1 0.000160635
21 *239:36 *9022:B1 7.58604e-05
*RES
1 *9173:Q *580:8 4.395 
2 *580:8 *8555:B 10.98 
3 *580:8 *9022:B1 13.725 
*END

*D_NET *581 0.0146471
*CONN
*I *8559:A1 I *D sky130_fd_sc_hd__o21a_1
*I *8495:B I *D sky130_fd_sc_hd__or2_1
*I *8947:B1 I *D sky130_fd_sc_hd__o2bb2a_1
*I *8552:A1 I *D sky130_fd_sc_hd__o31a_1
*I *8807:B I *D sky130_fd_sc_hd__or3_2
*I *8489:B I *D sky130_fd_sc_hd__nor2_1
*I *8587:B I *D sky130_fd_sc_hd__or3b_1
*I *9134:Q O *D sky130_fd_sc_hd__dfrtp_4
*CAP
1 *8559:A1 0.00035458
2 *8495:B 1.88809e-05
3 *8947:B1 0.000487087
4 *8552:A1 0
5 *8807:B 0.00052046
6 *8489:B 2.21484e-05
7 *8587:B 0.000415217
8 *9134:Q 0.000160146
9 *581:57 0.00112805
10 *581:42 0.00145668
11 *581:38 0.000384522
12 *581:34 0.000490244
13 *581:23 0.000167969
14 *581:8 0.000655907
15 *8495:B *8495:A 5.4155e-06
16 *8559:A1 *8558:A 4.00541e-06
17 *8559:A1 *9044:RESET_B 2.96334e-05
18 *8559:A1 *742:73 0.000186662
19 *8559:A1 *742:79 6.07422e-05
20 *8587:B *8587:A 0.000354215
21 *8587:B *620:96 0
22 *8807:B *8807:C 0.000311288
23 *8807:B *9134:CLK 1.52184e-05
24 *8807:B *620:98 0.000188957
25 *8807:B *707:157 0
26 *8807:B *735:290 0
27 *8947:B1 *8947:B2 0.000471702
28 *8947:B1 *642:33 0.000595497
29 *8947:B1 *677:90 9.50342e-06
30 *8947:B1 *723:33 9.07709e-05
31 *8947:B1 *763:26 0.000263595
32 *581:23 *8587:A 0.000183738
33 *581:23 *9134:RESET_B 0
34 *581:34 *8587:A 8.53113e-06
35 *581:34 *742:79 0.000165748
36 *581:38 *8495:A 4.24632e-05
37 *581:38 *707:151 0.000259928
38 *581:42 *671:14 3.23663e-05
39 *581:42 *707:151 0.000962464
40 *581:42 *717:10 0.00011964
41 *581:57 *671:14 0
42 *581:57 *677:14 0.000298442
43 *581:57 *677:90 0.000829165
44 *581:57 *735:274 0
45 *581:57 *735:290 0
46 *8496:A *581:38 8.52845e-05
47 *8559:A2 *8559:A1 4.82919e-05
48 *8559:B1 *8559:A1 0.000128012
49 *8590:C1 *8587:B 0.000177275
50 *8592:A1 *8489:B 4.66108e-05
51 *8677:A *581:57 0
52 *8807:A *8807:B 0
53 *8807:A *581:57 0
54 *8897:B1 *8947:B1 0.000468646
55 *8897:B1 *581:57 8.53113e-06
56 *9001:B1 *8807:B 0
57 *9042:D *8559:A1 0.000252282
58 *9134:D *581:23 0
59 *9177:D *581:57 0.000270647
60 *188:10 *8489:B 5.83121e-06
61 *190:12 *581:57 3.47668e-05
62 *237:10 *581:57 0.000423468
63 *239:20 *581:57 0
64 *239:50 *8559:A1 0.000632721
65 *239:50 *581:23 2.5021e-05
66 *239:50 *581:34 0.000163215
67 *448:18 *8587:B 0
68 *449:20 *8807:B 0.000124895
*RES
1 *9134:Q *581:8 5.775 
2 *581:8 *8587:B 9.885 
3 *581:8 *581:23 2.145 
4 *581:23 *8489:B 4.05 
5 *581:23 *581:34 2.145 
6 *581:34 *581:38 4.52 
7 *581:38 *581:42 10.73 
8 *581:42 *8807:B 12.99 
9 *581:42 *581:57 16.68 
10 *581:57 *8552:A1 3.6 
11 *581:57 *8947:B1 16.68 
12 *581:38 *8495:B 1.96 
13 *581:34 *8559:A1 14.25 
*END

*D_NET *582 0.00164671
*CONN
*I *8723:A I *D sky130_fd_sc_hd__inv_2
*I *8594:A1 I *D sky130_fd_sc_hd__o21a_1
*I *9136:Q O *D sky130_fd_sc_hd__dfrtp_1
*CAP
1 *8723:A 0.000427462
2 *8594:A1 0.000172127
3 *9136:Q 0
4 *582:4 0.000599589
5 *8594:A1 *8594:A2 6.68594e-05
6 *8723:A *9137:RESET_B 6.95505e-05
7 *8723:A *707:132 0
8 *8723:A *735:1187 0.000116158
9 *8723:A *759:18 0
10 *8594:B1 *8594:A1 7.78019e-05
11 *8597:A *8723:A 6.02762e-05
12 *8724:A1 *8723:A 2.68464e-05
13 *9136:D *8594:A1 3.00381e-05
14 *9138:D *8723:A 0
*RES
1 *9136:Q *582:4 1.6 
2 *582:4 *8594:A1 4.855 
3 *582:4 *8723:A 13.385 
*END

*D_NET *583 0.00094653
*CONN
*I *8665:B I *D sky130_fd_sc_hd__and2_1
*I *9161:Q O *D sky130_fd_sc_hd__dfrtp_1
*CAP
1 *8665:B 0.000283654
2 *9161:Q 0.000283654
3 *8663:A *8665:B 0.000349184
4 *8666:A *8665:B 3.00381e-05
*RES
1 *9161:Q *8665:B 13.17 
*END

*D_NET *584 0.00204437
*CONN
*I *9002:A1 I *D sky130_fd_sc_hd__a21o_1
*I *9162:Q O *D sky130_fd_sc_hd__dfrtp_1
*CAP
1 *9002:A1 0.000731149
2 *9162:Q 0.000731149
3 *9002:A1 *8654:A 0
4 *9002:A1 *9160:RESET_B 0
5 *9002:A1 *608:33 0.000423631
6 *9002:A1 *608:35 0
7 *9002:A1 *655:10 0
8 *9002:A1 *735:562 0
9 *8656:A2 *9002:A1 0.000126627
10 *8658:A *9002:A1 0
11 *292:28 *9002:A1 0
12 *319:23 *9002:A1 3.18137e-05
*RES
1 *9162:Q *9002:A1 18.345 
*END

*D_NET *585 0.00127835
*CONN
*I *8661:B I *D sky130_fd_sc_hd__and2_1
*I *9163:Q O *D sky130_fd_sc_hd__dfrtp_1
*CAP
1 *8661:B 0.000438721
2 *9163:Q 0.000438721
3 *8661:B *8659:B 0.00013521
4 *8661:B *9132:SET_B 0
5 *8661:B *9163:RESET_B 1.5913e-05
6 *8661:B *721:24 0.000124895
7 *8661:B *735:1130 0.000124895
8 *8661:B *735:1147 0
9 *8661:A *8661:B 0
*RES
1 *9163:Q *8661:B 13.53 
*END

*D_NET *586 0.00441713
*CONN
*I *9008:A1 I *D sky130_fd_sc_hd__a21o_1
*I *9164:Q O *D sky130_fd_sc_hd__dfrtp_1
*CAP
1 *9008:A1 0.00110063
2 *9164:Q 0.00110063
3 *9008:A1 *8838:A1 0.000528351
4 *9008:A1 *8850:A1 0.000255226
5 *9008:A1 *9047:CLK 0.000100536
6 *9008:A1 *9164:RESET_B 1.83756e-05
7 *9008:A1 *712:25 0
8 *9008:A1 *712:27 0
9 *9008:A1 *721:57 0.000186092
10 *9008:A1 *735:1279 1.61461e-05
11 *8608:A *9008:A1 0
12 *8747:B1 *9008:A1 9.50342e-06
13 *9047:D *9008:A1 6.47516e-05
14 *9165:D *9008:A1 0.000850869
15 *209:14 *9008:A1 0.000183043
16 *237:82 *9008:A1 2.97004e-06
*RES
1 *9164:Q *9008:A1 34.215 
*END

*D_NET *587 0.00538976
*CONN
*I *8570:B I *D sky130_fd_sc_hd__nor2_1
*I *8759:A_N I *D sky130_fd_sc_hd__and2b_1
*I *8567:B I *D sky130_fd_sc_hd__nor4_4
*I *8750:C I *D sky130_fd_sc_hd__and4bb_1
*I *8809:A1_N I *D sky130_fd_sc_hd__o2bb2ai_1
*I *9024:Q O *D sky130_fd_sc_hd__dfrtp_2
*CAP
1 *8570:B 0
2 *8759:A_N 0.000177478
3 *8567:B 2.09808e-05
4 *8750:C 0
5 *8809:A1_N 0.000308449
6 *9024:Q 0
7 *587:42 0.000419499
8 *587:33 0.000518637
9 *587:29 0.000654129
10 *587:4 0.000664982
11 *8759:A_N *8571:A 7.08493e-05
12 *8809:A1_N *8822:A1_N 0.00019637
13 *8809:A1_N *9024:RESET_B 6.01838e-05
14 *8809:A1_N *735:66 0.000139933
15 *8809:A1_N *735:80 7.25977e-05
16 *587:29 *8815:A2_N 0.000126584
17 *587:29 *9024:RESET_B 0.000278111
18 *587:29 *595:28 0
19 *587:33 *8570:A 4.80285e-05
20 *587:33 *595:28 0
21 *587:33 *595:37 9.9069e-05
22 *587:42 *8571:A 9.25387e-05
23 *587:42 *595:28 0
24 *587:42 *595:37 0.000198939
25 *8750:A_N *8759:A_N 5.57361e-05
26 *8770:B *8759:A_N 0
27 *8770:C *8759:A_N 0.000139969
28 *8809:B1 *8809:A1_N 7.23635e-05
29 *8809:B2 *8809:A1_N 0
30 *8822:B1 *8809:A1_N 0.000124007
31 *9024:D *8809:A1_N 0.00021352
32 *9028:D *587:29 4.60584e-05
33 *253:12 *587:33 1.47256e-05
34 *253:12 *587:42 9.80943e-06
35 *431:38 *587:29 0.000163199
36 *431:44 *587:29 0.0001249
37 *452:56 *587:29 0.000151541
38 *452:62 *587:29 0.00012657
*RES
1 *9024:Q *587:4 1.6 
2 *587:4 *8809:A1_N 13.235 
3 *587:4 *587:29 9.015 
4 *587:29 *587:33 3.825 
5 *587:33 *8750:C 1.6 
6 *587:33 *587:42 3.915 
7 *587:42 *8567:B 1.96 
8 *587:42 *8759:A_N 9.02 
9 *587:29 *8570:B 1.6 
*END

*D_NET *588 0.00487691
*CONN
*I *8827:B I *D sky130_fd_sc_hd__or4b_1
*I *8561:B I *D sky130_fd_sc_hd__nor2_2
*I *8755:B I *D sky130_fd_sc_hd__nor3b_1
*I *8756:C_N I *D sky130_fd_sc_hd__nor3b_1
*I *8825:D_N I *D sky130_fd_sc_hd__or4b_1
*I *8823:A2_N I *D sky130_fd_sc_hd__o2bb2ai_1
*I *9034:Q O *D sky130_fd_sc_hd__dfrtp_2
*CAP
1 *8827:B 6.36702e-05
2 *8561:B 0.000272101
3 *8755:B 4.11543e-05
4 *8756:C_N 0.000120589
5 *8825:D_N 1.17533e-05
6 *8823:A2_N 0.000286033
7 *9034:Q 0.000234316
8 *588:36 0.000398407
9 *588:34 0.000508765
10 *588:32 0.00012624
11 *588:21 0.000238983
12 *588:10 0.000685009
13 *8561:B *589:53 0.000284737
14 *8755:B *8756:B 3.67779e-05
15 *8756:C_N *8756:B 9.65788e-05
16 *8756:C_N *718:10 5.16348e-05
17 *8823:A2_N *9035:CLK 5.05437e-05
18 *8825:D_N *589:23 4.82863e-05
19 *588:10 *9034:RESET_B 6.60261e-06
20 *588:10 *735:1067 7.23602e-05
21 *588:10 *757:22 0
22 *588:21 *9035:CLK 0
23 *588:21 *757:22 0
24 *588:36 *8755:C_N 0.00013566
25 *588:36 *589:53 4.82863e-05
26 *8823:B1 *8823:A2_N 6.52265e-05
27 *8826:B1 *8825:D_N 2.75145e-05
28 *9034:D *8823:A2_N 0.000122325
29 *9035:D *8823:A2_N 9.27255e-06
30 *244:14 *8561:B 3.09179e-05
31 *260:49 *8755:B 2.92496e-05
32 *260:63 *8755:B 1.28505e-05
33 *260:63 *8756:C_N 0.000136464
34 *260:63 *588:36 2.85674e-05
35 *261:176 *8827:B 0
36 *430:46 *8755:B 2.42236e-05
37 *430:46 *8827:B 0
38 *430:46 *588:21 0
39 *430:46 *588:32 0
40 *430:56 *8823:A2_N 8.8266e-05
41 *452:24 *8827:B 0.000118527
42 *452:24 *588:21 7.30547e-05
43 *452:24 *588:32 0.000114492
44 *452:34 *8823:A2_N 0.000145648
45 *452:34 *588:21 3.18219e-05
*RES
1 *9034:Q *588:10 6.555 
2 *588:10 *8823:A2_N 9.57 
3 *588:10 *588:21 2.655 
4 *588:21 *8825:D_N 4.05 
5 *588:21 *588:32 1.38 
6 *588:32 *588:34 2 
7 *588:34 *588:36 3.21 
8 *588:36 *8756:C_N 7.805 
9 *588:36 *8755:B 6.60125 
10 *588:34 *8561:B 5.425 
11 *588:32 *8827:B 4.98 
*END

*D_NET *589 0.00418821
*CONN
*I *8561:A I *D sky130_fd_sc_hd__nor2_2
*I *8755:C_N I *D sky130_fd_sc_hd__nor3b_1
*I *8827:D_N I *D sky130_fd_sc_hd__or4b_1
*I *8826:A2_N I *D sky130_fd_sc_hd__o2bb2ai_1
*I *8756:B I *D sky130_fd_sc_hd__nor3b_1
*I *8825:C I *D sky130_fd_sc_hd__or4b_1
*I *9035:Q O *D sky130_fd_sc_hd__dfrtp_2
*CAP
1 *8561:A 0
2 *8755:C_N 6.53228e-05
3 *8827:D_N 0
4 *8826:A2_N 0
5 *8756:B 0.000215352
6 *8825:C 0
7 *9035:Q 0.000314792
8 *589:53 0.000164109
9 *589:49 0.000187256
10 *589:23 0.000483604
11 *589:14 0.000340515
12 *589:12 0.000475525
13 *8756:B *718:10 5.92191e-05
14 *589:12 *735:1075 6.55328e-05
15 *589:49 *9035:CLK 0.000100536
16 *589:49 *757:22 7.1635e-05
17 *8561:B *589:53 0.000284737
18 *8755:B *8756:B 3.67779e-05
19 *8756:C_N *8756:B 9.65788e-05
20 *8825:A *589:23 3.26889e-05
21 *8825:D_N *589:23 4.82863e-05
22 *8826:B1 *589:14 0.000124007
23 *8826:B1 *589:23 4.99782e-05
24 *8828:B1 *589:53 1.6418e-05
25 *244:14 *589:53 2.75145e-05
26 *260:63 *8755:C_N 0
27 *260:63 *8756:B 3.75328e-05
28 *260:73 *8756:B 4.82863e-05
29 *261:176 *8755:C_N 0.000208594
30 *261:176 *589:53 0.00015449
31 *397:8 *8756:B 0.000158066
32 *430:46 *8756:B 0
33 *430:56 *8756:B 0.00012657
34 *452:24 *589:23 1.03423e-05
35 *588:36 *8755:C_N 0.00013566
36 *588:36 *589:53 4.82863e-05
*RES
1 *9035:Q *589:12 10.535 
2 *589:12 *589:14 1.485 
3 *589:14 *8825:C 1.6 
4 *589:14 *589:23 4.17 
5 *589:23 *8756:B 10.46 
6 *589:23 *8826:A2_N 1.6 
7 *589:12 *589:49 6.145 
8 *589:49 *589:53 3.225 
9 *589:53 *8827:D_N 1.6 
10 *589:53 *8755:C_N 4.135 
11 *589:49 *8561:A 1.6 
*END

*D_NET *590 0.00440702
*CONN
*I *8563:B I *D sky130_fd_sc_hd__nor2_1
*I *8782:B I *D sky130_fd_sc_hd__nor2_1
*I *8580:A I *D sky130_fd_sc_hd__nand4_2
*I *8753:B I *D sky130_fd_sc_hd__nor4_1
*I *8828:A2_N I *D sky130_fd_sc_hd__o2bb2ai_1
*I *9036:Q O *D sky130_fd_sc_hd__dfrtp_2
*CAP
1 *8563:B 0
2 *8782:B 0
3 *8580:A 0.000153934
4 *8753:B 0
5 *8828:A2_N 4.62076e-05
6 *9036:Q 0.000828506
7 *590:42 0.000230679
8 *590:29 0.000102866
9 *590:27 0.000396901
10 *590:8 0.00124549
11 *8580:A *591:31 7.08076e-06
12 *8580:A *718:10 0.000201407
13 *590:27 *8563:A 5.123e-05
14 *590:27 *8753:C 3.54025e-05
15 *590:29 *8563:A 4.66108e-05
16 *590:29 *8753:D 4.82863e-05
17 *590:29 *591:48 1.46744e-05
18 *590:42 *8563:A 0
19 *590:42 *8753:D 1.46828e-05
20 *590:42 *591:31 0.000216855
21 *590:42 *591:48 9.53428e-06
22 *8580:C *8580:A 6.58423e-05
23 *8782:A *590:42 0.000122331
24 *8783:B *8580:A 0.000189079
25 *8783:C *8580:A 1.35397e-05
26 *8783:D *8580:A 7.3664e-05
27 *259:16 *8580:A 2.05056e-05
28 *261:83 *590:42 0
29 *395:18 *8580:A 1.41559e-05
30 *395:18 *590:27 0
31 *395:18 *590:42 4.39399e-05
32 *419:10 *8580:A 2.75538e-05
33 *430:36 *8828:A2_N 2.87867e-05
34 *430:36 *590:27 0.000157269
35 *452:14 *8828:A2_N 0
36 *452:14 *590:27 0
*RES
1 *9036:Q *590:8 12.33 
2 *590:8 *8828:A2_N 4.47 
3 *590:8 *590:27 9.245 
4 *590:27 *590:29 0.795 
5 *590:29 *8753:B 1.6 
6 *590:29 *590:42 2.9775 
7 *590:42 *8580:A 10.3325 
8 *590:42 *8782:B 1.6 
9 *590:27 *8563:B 1.6 
*END

*D_NET *591 0.0106808
*CONN
*I *8830:A1_N I *D sky130_fd_sc_hd__o2bb2ai_1
*I *8563:A I *D sky130_fd_sc_hd__nor2_1
*I *8753:A I *D sky130_fd_sc_hd__nor4_1
*I *8783:A I *D sky130_fd_sc_hd__nand4_2
*I *8579:B I *D sky130_fd_sc_hd__nor2_1
*I *9037:Q O *D sky130_fd_sc_hd__dfrtp_2
*CAP
1 *8830:A1_N 0.000441431
2 *8563:A 5.22252e-05
3 *8753:A 0
4 *8783:A 8.93423e-05
5 *8579:B 0
6 *9037:Q 0
7 *591:48 8.03793e-05
8 *591:31 0.000364874
9 *591:22 0.00305913
10 *591:6 0.00325319
11 *8563:A *8753:C 6.00111e-05
12 *8783:A *8753:D 9.30787e-05
13 *8830:A1_N *8817:A1_N 0.000163199
14 *8830:A1_N *9029:RESET_B 7.54567e-05
15 *8830:A1_N *9031:CLK 4.43682e-05
16 *8830:A1_N *9031:RESET_B 0.000117428
17 *8830:A1_N *715:18 0
18 *8830:A1_N *735:80 2.46007e-05
19 *591:22 *8568:A 0.000111285
20 *591:22 *715:18 0
21 *591:22 *735:80 2.66935e-05
22 *591:31 *8753:C 4.82863e-05
23 *591:48 *8753:C 4.66108e-05
24 *8580:A *591:31 7.08076e-06
25 *8580:D *591:22 1.61831e-05
26 *8580:D *591:31 1.16578e-05
27 *8754:B *591:22 0.00019637
28 *8783:B *8783:A 0
29 *8783:D *591:31 8.65905e-05
30 *8809:B2 *8830:A1_N 0
31 *8817:B1 *8830:A1_N 0.000224759
32 *8817:B2 *8830:A1_N 9.27255e-06
33 *9031:D *8830:A1_N 8.65905e-05
34 *258:40 *591:22 7.23602e-05
35 *259:16 *8783:A 3.68769e-05
36 *261:83 *591:22 1.94548e-05
37 *261:83 *591:31 3.92196e-05
38 *393:29 *591:22 0.00104963
39 *395:18 *591:22 0.000311294
40 *395:18 *591:31 1.34594e-05
41 *419:10 *591:22 0
42 *425:14 *8783:A 9.53428e-06
43 *590:27 *8563:A 5.123e-05
44 *590:29 *8563:A 4.66108e-05
45 *590:29 *591:48 1.46744e-05
46 *590:42 *8563:A 0
47 *590:42 *591:31 0.000216855
48 *590:42 *591:48 9.53428e-06
*RES
1 *9037:Q *591:6 3.6 
2 *591:6 *591:22 40.65 
3 *591:22 *8579:B 1.6 
4 *591:22 *591:31 4.86 
5 *591:31 *8783:A 7.595 
6 *591:31 *591:48 0.81 
7 *591:48 *8753:A 1.6 
8 *591:48 *8563:A 3.1 
9 *591:6 *8830:A1_N 12.75 
*END

*D_NET *592 0.00532808
*CONN
*I *8776:A1 I *D sky130_fd_sc_hd__o21ai_1
*I *8775:C I *D sky130_fd_sc_hd__nand3_1
*I *8564:B I *D sky130_fd_sc_hd__nor2_2
*I *8753:D I *D sky130_fd_sc_hd__nor4_1
*I *8831:A2_N I *D sky130_fd_sc_hd__o2bb2ai_1
*I *9038:Q O *D sky130_fd_sc_hd__dfrtp_2
*CAP
1 *8776:A1 6.82996e-05
2 *8775:C 0
3 *8564:B 0.000104705
4 *8753:D 0.000243145
5 *8831:A2_N 6.31977e-05
6 *9038:Q 0.000882917
7 *592:47 0.000121222
8 *592:19 0.000491702
9 *592:15 0.000196774
10 *592:6 0.000946114
11 *8564:B *8773:B_N 0.000120655
12 *8564:B *593:14 2.8185e-05
13 *8564:B *593:16 5.4155e-06
14 *8753:D *8773:B_N 0.000123225
15 *592:6 *9038:CLK 7.35813e-05
16 *8782:A *8753:D 0.000100139
17 *8783:A *8753:D 9.30787e-05
18 *8831:B1 *8831:A2_N 4.80285e-05
19 *8831:B1 *592:6 6.00111e-05
20 *8832:B *8776:A1 0.00012657
21 *9038:D *592:6 9.43372e-05
22 *259:16 *8753:D 0
23 *260:18 *8564:B 2.05056e-05
24 *260:18 *8753:D 7.00889e-06
25 *260:18 *8776:A1 4.87465e-06
26 *260:18 *592:19 0.000425829
27 *260:18 *592:47 9.40887e-05
28 *260:26 *8753:D 0.000247975
29 *395:18 *8753:D 4.82919e-05
30 *417:8 *8776:A1 7.66083e-05
31 *418:10 *8776:A1 7.60965e-05
32 *425:14 *8753:D 4.21973e-05
33 *425:14 *592:19 0.000174402
34 *425:29 *592:19 8.41703e-06
35 *430:26 *592:19 0
36 *430:26 *592:47 0
37 *430:36 *8753:D 2.4997e-05
38 *430:36 *592:19 2.25161e-05
39 *590:29 *8753:D 4.82863e-05
40 *590:42 *8753:D 1.46828e-05
*RES
1 *9038:Q *592:6 11.71 
2 *592:6 *8831:A2_N 2.395 
3 *592:6 *592:15 2 
4 *592:15 *592:19 6.95 
5 *592:19 *8753:D 11.315 
6 *592:19 *8564:B 3.79 
7 *592:15 *592:47 3.125 
8 *592:47 *8775:C 1.6 
9 *592:47 *8776:A1 3.79 
*END

*D_NET *593 0.00485923
*CONN
*I *8774:A I *D sky130_fd_sc_hd__inv_2
*I *8833:A2_N I *D sky130_fd_sc_hd__o2bb2ai_1
*I *8753:C I *D sky130_fd_sc_hd__nor4_1
*I *8564:A I *D sky130_fd_sc_hd__nor2_2
*I *8773:B_N I *D sky130_fd_sc_hd__or2b_1
*I *9039:Q O *D sky130_fd_sc_hd__dfrtp_2
*CAP
1 *8774:A 0.000186316
2 *8833:A2_N 0.000194524
3 *8753:C 0.000401834
4 *8564:A 0
5 *8773:B_N 9.42245e-05
6 *9039:Q 0.000300446
7 *593:30 0.000596358
8 *593:16 0.000127846
9 *593:14 0.000547943
10 *593:8 0.00100108
11 *8774:A *9080:CLK 8.8266e-05
12 *8774:A *735:1089 0.000153139
13 *8774:A *735:1095 9.67819e-05
14 *8774:A *757:22 0
15 *593:14 *735:1082 9.54399e-05
16 *593:14 *735:1089 9.06521e-05
17 *593:14 *757:22 0
18 *8563:A *8753:C 6.00111e-05
19 *8564:B *8773:B_N 0.000120655
20 *8564:B *593:14 2.8185e-05
21 *8564:B *593:16 5.4155e-06
22 *8753:D *8773:B_N 0.000123225
23 *8776:A2 *8753:C 9.50342e-06
24 *8776:A2 *8833:A2_N 6.28498e-05
25 *8833:B1 *8833:A2_N 6.78134e-05
26 *260:18 *8753:C 6.00081e-05
27 *416:6 *8774:A 4.99619e-05
28 *425:14 *8773:B_N 4.82919e-05
29 *425:14 *593:16 0
30 *452:14 *8753:C 9.35466e-05
31 *452:14 *8833:A2_N 2.46089e-05
32 *590:27 *8753:C 3.54025e-05
33 *591:31 *8753:C 4.82863e-05
34 *591:48 *8753:C 4.66108e-05
*RES
1 *9039:Q *593:8 6.81 
2 *593:8 *593:14 8.735 
3 *593:14 *593:16 0.615 
4 *593:16 *8773:B_N 3.775 
5 *593:16 *8564:A 1.6 
6 *593:14 *593:30 2 
7 *593:30 *8753:C 9.3 
8 *593:30 *8833:A2_N 6.3 
9 *593:8 *8774:A 7.92 
*END

*D_NET *594 0.00177281
*CONN
*I *8560:A I *D sky130_fd_sc_hd__inv_2
*I *8577:A I *D sky130_fd_sc_hd__buf_2
*I *9040:Q O *D sky130_fd_sc_hd__dfrtp_1
*CAP
1 *8560:A 0.000213341
2 *8577:A 0.000145647
3 *9040:Q 0.000354126
4 *594:10 0.000713114
5 *8577:A *719:10 2.09842e-05
6 *8577:A *719:12 1.02346e-05
7 *8577:A *757:22 0.000196602
8 *594:10 *719:10 0
9 *594:10 *757:22 9.37731e-05
10 *243:6 *8560:A 2.49909e-05
*RES
1 *9040:Q *594:10 7.935 
2 *594:10 *8577:A 6.81 
3 *594:10 *8560:A 6.48 
*END

*D_NET *595 0.00349474
*CONN
*I *8567:A I *D sky130_fd_sc_hd__nor4_4
*I *8759:B I *D sky130_fd_sc_hd__and2b_1
*I *8570:A I *D sky130_fd_sc_hd__nor2_1
*I *8750:B_N I *D sky130_fd_sc_hd__and4bb_1
*I *8812:A2_N I *D sky130_fd_sc_hd__o2bb2ai_1
*I *9025:Q O *D sky130_fd_sc_hd__dfrtp_2
*CAP
1 *8567:A 0
2 *8759:B 0.000203759
3 *8570:A 1.98959e-05
4 *8750:B_N 0
5 *8812:A2_N 9.22881e-05
6 *9025:Q 8.27746e-05
7 *595:37 0.00028205
8 *595:28 0.000124202
9 *595:21 8.33475e-05
10 *595:8 0.000232395
11 *595:8 *735:41 8.97486e-05
12 *595:21 *735:41 5.57814e-05
13 *8750:D *595:37 0.0001249
14 *8770:A_N *8759:B 0
15 *8770:B *8759:B 9.78953e-05
16 *8770:C *8759:B 0.000309803
17 *8770:D *8759:B 0
18 *8812:B1 *8812:A2_N 0.000198939
19 *8812:B1 *595:8 1.0183e-05
20 *8812:B1 *595:21 4.11281e-05
21 *8812:B2 *8812:A2_N 8.73389e-06
22 *8815:B1 *8812:A2_N 0.000349592
23 *9025:D *8812:A2_N 2.50702e-05
24 *253:12 *8570:A 8.65961e-05
25 *253:12 *595:37 0.000233226
26 *412:29 *8759:B 0.000348107
27 *431:30 *8812:A2_N 4.82863e-05
28 *587:29 *595:28 0
29 *587:33 *8570:A 4.80285e-05
30 *587:33 *595:28 0
31 *587:33 *595:37 9.9069e-05
32 *587:42 *595:28 0
33 *587:42 *595:37 0.000198939
*RES
1 *9025:Q *595:8 5.49 
2 *595:8 *8812:A2_N 7.155 
3 *595:8 *595:21 3.38 
4 *595:21 *8750:B_N 1.6 
5 *595:21 *595:28 0.36 
6 *595:28 *8570:A 2.395 
7 *595:28 *595:37 3.555 
8 *595:37 *8759:B 11.21 
9 *595:37 *8567:A 1.6 
*END

*D_NET *596 0.00734099
*CONN
*I *8571:B I *D sky130_fd_sc_hd__nor2_1
*I *8567:D I *D sky130_fd_sc_hd__nor4_4
*I *8758:C I *D sky130_fd_sc_hd__nor3_1
*I *8771:C_N I *D sky130_fd_sc_hd__nor3b_1
*I *8813:A2_N I *D sky130_fd_sc_hd__o2bb2ai_1
*I *8769:B I *D sky130_fd_sc_hd__nor3b_1
*I *9026:Q O *D sky130_fd_sc_hd__dfrtp_4
*CAP
1 *8571:B 0.00032044
2 *8567:D 0.000120659
3 *8758:C 4.08333e-05
4 *8771:C_N 0.000239233
5 *8813:A2_N 0
6 *8769:B 0.000156658
7 *9026:Q 0.000476783
8 *596:72 0.000544229
9 *596:59 0.00032035
10 *596:20 0.000239454
11 *596:18 0.000437106
12 *596:16 0.000768247
13 *8571:B *8571:A 4.82863e-05
14 *8571:B *603:37 0.000404385
15 *8758:C *8758:B 4.94457e-05
16 *8758:C *597:42 1.16578e-05
17 *8771:C_N *597:38 2.76652e-05
18 *8771:C_N *597:42 1.78675e-05
19 *8771:C_N *597:50 5.53249e-06
20 *596:16 *9032:RESET_B 0.000158782
21 *596:16 *9079:CLK 0
22 *596:16 *597:8 0
23 *596:16 *761:16 0
24 *596:59 *597:8 8.78813e-05
25 *596:59 *597:38 6.02202e-05
26 *8585:A *8571:B 4.66108e-05
27 *8751:A_N *8571:B 0.000197826
28 *8751:C *8571:B 8.23457e-05
29 *8758:A *8758:C 4.77719e-05
30 *8760:A_N *8571:B 0
31 *8760:B *8567:D 0.000149534
32 *8760:B *596:72 2.97023e-05
33 *8769:A *8769:B 5.18317e-06
34 *8771:A *8758:C 2.66771e-05
35 *8771:A *8771:C_N 5.9964e-06
36 *8813:B1 *596:16 0.000151267
37 *8813:B1 *596:18 0.000122699
38 *8813:B1 *596:59 0
39 *8813:B2 *8771:C_N 0.000179015
40 *8814:B1 *8769:B 5.16418e-05
41 *8814:B1 *8771:C_N 0
42 *9027:D *8769:B 0
43 *9032:D *596:16 0
44 *248:32 *8571:B 0.000653913
45 *260:88 *8758:C 9.53428e-06
46 *260:92 *8567:D 7.20869e-05
47 *260:92 *8571:B 0.000108322
48 *260:92 *596:72 0.000219471
49 *260:115 *8571:B 2.92496e-05
50 *400:12 *8758:C 5.83121e-06
51 *400:12 *596:59 5.23362e-05
52 *400:12 *596:72 0.000157325
53 *401:18 *8567:D 0.000122337
54 *412:29 *8567:D 7.37606e-05
55 *412:29 *8771:C_N 4.9968e-05
56 *412:29 *596:59 1.65192e-05
57 *412:29 *596:72 5.98004e-06
58 *431:12 *8769:B 4.5783e-05
59 *431:12 *8771:C_N 0
60 *431:20 *8769:B 8.65905e-05
*RES
1 *9026:Q *596:16 13.31 
2 *596:16 *596:18 1.83 
3 *596:18 *596:20 1.14 
4 *596:20 *8769:B 8.375 
5 *596:20 *8813:A2_N 1.6 
6 *596:18 *8771:C_N 10.0025 
7 *596:16 *596:59 5.675 
8 *596:59 *8758:C 4.755 
9 *596:59 *596:72 2.91 
10 *596:72 *8567:D 10.405 
11 *596:72 *8571:B 13.755 
*END

*D_NET *597 0.00487415
*CONN
*I *8758:B I *D sky130_fd_sc_hd__nor3_1
*I *8771:B I *D sky130_fd_sc_hd__nor3b_1
*I *8571:A I *D sky130_fd_sc_hd__nor2_1
*I *8567:C I *D sky130_fd_sc_hd__nor4_4
*I *8769:C_N I *D sky130_fd_sc_hd__nor3b_1
*I *8814:A2_N I *D sky130_fd_sc_hd__o2bb2ai_1
*I *9027:Q O *D sky130_fd_sc_hd__dfrtp_4
*CAP
1 *8758:B 1.86853e-05
2 *8771:B 0
3 *8571:A 0.000224647
4 *8567:C 0
5 *8769:C_N 0
6 *8814:A2_N 0.000157442
7 *9027:Q 0.000276196
8 *597:50 0.00035262
9 *597:42 0.000212666
10 *597:38 0.000180623
11 *597:12 0.000209649
12 *597:8 0.000405648
13 *8571:A *603:37 3.99987e-05
14 *597:8 *9032:RESET_B 5.4003e-05
15 *597:8 *735:21 0
16 *8571:B *8571:A 4.82863e-05
17 *8750:D *8571:A 9.25593e-05
18 *8751:C *8571:A 0.000124332
19 *8758:C *8758:B 4.94457e-05
20 *8758:C *597:42 1.16578e-05
21 *8759:A_N *8571:A 7.08493e-05
22 *8760:B *8571:A 0.000119242
23 *8760:B *597:50 6.52265e-05
24 *8769:A *8814:A2_N 6.80075e-05
25 *8770:B *8571:A 2.92496e-05
26 *8770:C *597:42 0
27 *8771:A *597:42 2.64401e-05
28 *8771:C_N *597:38 2.76652e-05
29 *8771:C_N *597:42 1.78675e-05
30 *8771:C_N *597:50 5.53249e-06
31 *8772:D *597:50 1.82476e-05
32 *8789:A *597:12 0.00019637
33 *8813:B2 *597:8 0.000100536
34 *8813:B2 *597:38 1.07797e-05
35 *8814:A1_N *8814:A2_N 2.68007e-05
36 *8814:B1 *8814:A2_N 4.5675e-05
37 *8814:B2 *8814:A2_N 4.04749e-05
38 *9026:D *597:8 4.7043e-05
39 *9027:D *8814:A2_N 3.15634e-05
40 *250:8 *597:50 4.12756e-05
41 *250:31 *597:50 1.03592e-05
42 *253:12 *8571:A 4.66108e-05
43 *253:33 *8571:A 0.000145029
44 *401:18 *597:50 0.000189893
45 *412:29 *597:38 8.53113e-06
46 *412:29 *597:42 0.000119756
47 *412:29 *597:50 5.09129e-05
48 *431:12 *8814:A2_N 3.64998e-06
49 *431:12 *597:12 2.59926e-05
50 *452:40 *597:12 7.40446e-05
51 *452:42 *8814:A2_N 0.000244858
52 *452:42 *597:12 0.000198934
53 *452:48 *8814:A2_N 6.76322e-05
54 *587:42 *8571:A 9.25387e-05
55 *596:16 *597:8 0
56 *596:59 *597:8 8.78813e-05
57 *596:59 *597:38 6.02202e-05
*RES
1 *9027:Q *597:8 9.57 
2 *597:8 *597:12 4.52 
3 *597:12 *8814:A2_N 6.34 
4 *597:12 *8769:C_N 1.6 
5 *597:8 *597:38 3.74 
6 *597:38 *597:42 1.845 
7 *597:42 *597:50 7.285 
8 *597:50 *8567:C 1.6 
9 *597:50 *8571:A 12.11 
10 *597:42 *8771:B 1.6 
11 *597:38 *8758:B 2.05 
*END

*D_NET *598 0.00645443
*CONN
*I *8573:A I *D sky130_fd_sc_hd__nor2_1
*I *8582:C_N I *D sky130_fd_sc_hd__nor3b_1
*I *8762:B I *D sky130_fd_sc_hd__nor2_1
*I *8568:A I *D sky130_fd_sc_hd__nor4_4
*I *8815:A2_N I *D sky130_fd_sc_hd__o2bb2ai_1
*I *9028:Q O *D sky130_fd_sc_hd__dfrtp_4
*CAP
1 *8573:A 0.000104706
2 *8582:C_N 0.000316255
3 *8762:B 0
4 *8568:A 0.00030202
5 *8815:A2_N 0.000475497
6 *9028:Q 0
7 *598:56 0.000434824
8 *598:46 0.000296856
9 *598:29 0.00052802
10 *598:4 0.000627918
11 *8568:A *8568:B 0.000122096
12 *8568:A *8573:B 0
13 *8568:A *600:25 3.05373e-05
14 *8568:A *600:29 8.25609e-05
15 *8573:A *8573:B 0.000122331
16 *8582:C_N *8582:B 7.71488e-05
17 *8815:A2_N *603:37 0.000157397
18 *8815:A2_N *735:41 0.000181029
19 *598:29 *8573:B 8.53113e-06
20 *598:46 *8573:B 8.65905e-05
21 *598:56 *8573:B 6.9117e-05
22 *598:56 *8791:A 0
23 *8582:A *8582:C_N 0
24 *8583:A_N *8582:C_N 2.03321e-05
25 *8583:D *8582:C_N 0.000285941
26 *8791:B *598:56 9.61303e-05
27 *8792:A_N *8582:C_N 1.37328e-05
28 *8792:B *8582:C_N 2.9868e-05
29 *8793:D *8582:C_N 0.000226769
30 *8819:B1 *8582:C_N 2.16917e-05
31 *8819:B1 *598:56 0.000123225
32 *248:49 *598:29 0.0001032
33 *248:57 *8582:C_N 0.00035825
34 *248:57 *598:29 0
35 *248:57 *598:56 9.358e-05
36 *248:76 *8582:C_N 5.37955e-05
37 *250:69 *8582:C_N 6.03272e-05
38 *393:8 *8815:A2_N 2.75229e-05
39 *393:29 *8568:A 4.66108e-05
40 *393:29 *8573:A 4.60584e-05
41 *393:29 *598:29 0.000386747
42 *393:29 *598:46 1.46828e-05
43 *404:6 *8582:C_N 3.64998e-06
44 *404:6 *598:56 7.67415e-06
45 *431:38 *8815:A2_N 0.000124895
46 *452:56 *8815:A2_N 4.84422e-05
47 *452:62 *8815:A2_N 0
48 *587:29 *8815:A2_N 0.000126584
49 *591:22 *8568:A 0.000111285
*RES
1 *9028:Q *598:4 1.6 
2 *598:4 *8815:A2_N 14.63 
3 *598:4 *598:29 8.44 
4 *598:29 *8568:A 11.96 
5 *598:29 *598:46 1.5 
6 *598:46 *598:56 7.39 
7 *598:56 *8762:B 1.6 
8 *598:56 *8582:C_N 14.825 
9 *598:46 *8573:A 3.79 
*END

*D_NET *599 0.00916205
*CONN
*I *8765:A I *D sky130_fd_sc_hd__nor3b_1
*I *8781:A1 I *D sky130_fd_sc_hd__a21oi_1
*I *8582:B I *D sky130_fd_sc_hd__nor3b_1
*I *8763:A I *D sky130_fd_sc_hd__nor3b_1
*I *8573:B I *D sky130_fd_sc_hd__nor2_1
*I *8791:A I *D sky130_fd_sc_hd__and2_1
*I *8568:B I *D sky130_fd_sc_hd__nor4_4
*I *8817:A1_N I *D sky130_fd_sc_hd__o2bb2ai_1
*I *9029:Q O *D sky130_fd_sc_hd__dfrtp_4
*CAP
1 *8765:A 0
2 *8781:A1 0.000283887
3 *8582:B 0.000122177
4 *8763:A 0
5 *8573:B 0.000138326
6 *8791:A 2.08101e-05
7 *8568:B 0.000150848
8 *8817:A1_N 0.000321028
9 *9029:Q 2.08101e-05
10 *599:91 0.00103112
11 *599:58 0.000184449
12 *599:45 0.000235007
13 *599:41 0.000202285
14 *599:37 0.000768494
15 *599:35 0.000796697
16 *599:6 0.00113854
17 *8791:A *8572:A 0
18 *8817:A1_N *9029:RESET_B 7.22354e-05
19 *599:6 *735:121 0
20 *599:35 *8765:B 4.82863e-05
21 *599:35 *8765:C_N 4.66108e-05
22 *599:35 *9029:RESET_B 3.96653e-05
23 *599:35 *9031:CLK 1.67639e-05
24 *599:35 *601:6 0.000124895
25 *599:35 *715:16 1.22676e-05
26 *599:35 *715:18 1.94723e-05
27 *599:41 *600:25 0.000104994
28 *599:41 *600:29 8.44359e-05
29 *599:41 *601:10 0.000202088
30 *599:41 *601:14 0.000114492
31 *599:45 *8572:A 4.85795e-05
32 *599:45 *8572:B 0.000112349
33 *599:45 *8763:C_N 4.99619e-05
34 *599:58 *8572:A 4.57938e-05
35 *599:91 *9030:RESET_B 1.70935e-05
36 *599:91 *600:14 9.65676e-05
37 *599:91 *600:25 1.52184e-05
38 *8568:A *8568:B 0.000122096
39 *8568:A *8573:B 0
40 *8573:A *8573:B 0.000122331
41 *8582:C_N *8582:B 7.71488e-05
42 *8583:D *8781:A1 4.43871e-06
43 *8766:A_N *599:91 6.07575e-06
44 *8781:A2 *8781:A1 5.83121e-06
45 *8781:B1 *8781:A1 0.00019183
46 *8786:A3 *8781:A1 1.79649e-05
47 *8791:B *8791:A 0
48 *8792:A_N *8582:B 0
49 *8792:C *8568:B 0
50 *8792:C *8582:B 0
51 *8792:C *599:91 0.00012657
52 *8793:D *8582:B 2.32293e-05
53 *8793:D *599:91 2.24513e-06
54 *8817:A2_N *8817:A1_N 0.000282966
55 *8817:B1 *8817:A1_N 2.0514e-05
56 *8817:B2 *8817:A1_N 8.34281e-06
57 *8818:A1_N *599:35 2.75229e-05
58 *8818:B1 *599:91 5.02845e-06
59 *8818:B2 *599:41 0
60 *8819:B1 *8573:B 3.66286e-05
61 *8819:B1 *599:45 0.000238919
62 *8819:B1 *599:58 0.000153217
63 *8830:A1_N *8817:A1_N 0.000163199
64 *9030:D *599:35 0.000139245
65 *9030:D *599:41 0
66 *9030:D *599:91 0
67 *9031:D *599:35 3.67779e-05
68 *9037:D *8817:A1_N 7.4027e-05
69 *9122:D *8781:A1 8.22234e-06
70 *255:10 *8568:B 0
71 *255:10 *8573:B 1.83756e-05
72 *255:10 *599:58 4.96048e-05
73 *393:29 *8573:B 0.000207155
74 *431:90 *8817:A1_N 4.82863e-05
75 *446:30 *8817:A1_N 9.37731e-05
76 *452:62 *599:41 0
77 *598:29 *8573:B 8.53113e-06
78 *598:46 *8573:B 8.65905e-05
79 *598:56 *8573:B 6.9117e-05
80 *598:56 *8791:A 0
*RES
1 *9029:Q *599:6 1.96 
2 *599:6 *8817:A1_N 12.125 
3 *599:6 *599:35 15.175 
4 *599:35 *599:37 2 
5 *599:37 *599:41 6.185 
6 *599:41 *599:45 2.535 
7 *599:45 *8568:B 8.255 
8 *599:45 *599:58 1.485 
9 *599:58 *8791:A 1.96 
10 *599:58 *8573:B 9.515 
11 *599:41 *8763:A 1.6 
12 *599:37 *599:91 10.535 
13 *599:91 *8582:B 4.06 
14 *599:91 *8781:A1 9.335 
15 *599:35 *8765:A 1.6 
*END

*D_NET *600 0.00398722
*CONN
*I *8568:D I *D sky130_fd_sc_hd__nor4_4
*I *8818:A2_N I *D sky130_fd_sc_hd__o2bb2ai_1
*I *8572:B I *D sky130_fd_sc_hd__nor2_1
*I *8763:C_N I *D sky130_fd_sc_hd__nor3b_1
*I *8765:B I *D sky130_fd_sc_hd__nor3b_1
*I *9030:Q O *D sky130_fd_sc_hd__dfrtp_4
*CAP
1 *8568:D 0.000273175
2 *8818:A2_N 0.000204312
3 *8572:B 2.19959e-05
4 *8763:C_N 7.77117e-06
5 *8765:B 6.06568e-05
6 *9030:Q 0
7 *600:29 0.000100188
8 *600:25 0.000405377
9 *600:14 0.000384135
10 *600:4 0.000466011
11 *8568:D *8568:C 1.16578e-05
12 *8572:B *8572:A 0.000122337
13 *8763:C_N *8572:A 4.82863e-05
14 *8765:B *8765:C_N 2.16917e-05
15 *8818:A2_N *8568:C 0.000120655
16 *8568:A *600:25 3.05373e-05
17 *8568:A *600:29 8.25609e-05
18 *8583:D *8568:D 0
19 *8766:A_N *8568:D 0
20 *8766:A_N *600:14 0.000290467
21 *8766:B *600:25 0
22 *8766:C *600:25 0
23 *8766:D *8765:B 1.34503e-05
24 *8766:D *600:14 9.80943e-06
25 *8792:C *8568:D 0.000278796
26 *8792:C *600:25 0
27 *8818:B1 *8568:D 0.000240202
28 *8818:B1 *8818:A2_N 5.85254e-05
29 *8818:B1 *600:25 0
30 *8818:B2 *8818:A2_N 0.0001249
31 *9030:D *8818:A2_N 3.07153e-05
32 *255:14 *8568:D 6.71882e-05
33 *599:35 *8765:B 4.82863e-05
34 *599:41 *600:25 0.000104994
35 *599:41 *600:29 8.44359e-05
36 *599:45 *8572:B 0.000112349
37 *599:45 *8763:C_N 4.99619e-05
38 *599:91 *600:14 9.65676e-05
39 *599:91 *600:25 1.52184e-05
*RES
1 *9030:Q *600:4 1.6 
2 *600:4 *600:14 8.86 
3 *600:14 *8765:B 2.74 
4 *600:14 *600:25 4.655 
5 *600:25 *600:29 3.89 
6 *600:29 *8763:C_N 2.05 
7 *600:29 *8572:B 2.74 
8 *600:25 *8818:A2_N 8.025 
9 *600:4 *8568:D 11.225 
*END

*D_NET *601 0.00333297
*CONN
*I *8765:C_N I *D sky130_fd_sc_hd__nor3b_1
*I *8568:C I *D sky130_fd_sc_hd__nor4_4
*I *8572:A I *D sky130_fd_sc_hd__nor2_1
*I *8763:B I *D sky130_fd_sc_hd__nor3b_1
*I *8819:A2_N I *D sky130_fd_sc_hd__o2bb2ai_1
*I *9031:Q O *D sky130_fd_sc_hd__dfrtp_4
*CAP
1 *8765:C_N 4.07573e-05
2 *8568:C 0.000376569
3 *8572:A 9.90823e-05
4 *8763:B 0
5 *8819:A2_N 0.000176308
6 *9031:Q 3.10703e-05
7 *601:14 0.000340179
8 *601:10 0.000554726
9 *601:6 0.000185195
10 *8568:D *8568:C 1.16578e-05
11 *8572:B *8572:A 0.000122337
12 *8763:C_N *8572:A 4.82863e-05
13 *8764:D *8572:A 0.000124068
14 *8764:D *8819:A2_N 5.05437e-05
15 *8765:B *8765:C_N 2.16917e-05
16 *8766:A_N *8765:C_N 0
17 *8766:D *8765:C_N 7.3151e-05
18 *8766:D *601:6 8.65905e-05
19 *8791:A *8572:A 0
20 *8818:A1_N *601:10 0
21 *8818:A2_N *8568:C 0.000120655
22 *8818:B1 *8568:C 3.64402e-05
23 *8818:B2 *601:14 0
24 *8819:B1 *8572:A 1.12578e-05
25 *8819:B1 *8819:A2_N 8.5841e-05
26 *9030:D *601:10 0
27 *9031:D *8819:A2_N 7.60965e-05
28 *255:10 *8572:A 6.84761e-05
29 *431:56 *8819:A2_N 9.53428e-06
30 *599:35 *8765:C_N 4.66108e-05
31 *599:35 *601:6 0.000124895
32 *599:41 *601:10 0.000202088
33 *599:41 *601:14 0.000114492
34 *599:45 *8572:A 4.85795e-05
35 *599:58 *8572:A 4.57938e-05
*RES
1 *9031:Q *601:6 2.74 
2 *601:6 *601:10 4.4 
3 *601:10 *601:14 3.38 
4 *601:14 *8819:A2_N 5.515 
5 *601:14 *8763:B 1.6 
6 *601:14 *8572:A 4.9075 
7 *601:10 *8568:C 8.475 
8 *601:6 *8765:C_N 2.755 
*END

*D_NET *602 0.00460924
*CONN
*I *8585:C_N I *D sky130_fd_sc_hd__nor3b_1
*I *8562:B I *D sky130_fd_sc_hd__nor2_2
*I *8784:B I *D sky130_fd_sc_hd__nor2_1
*I *8820:A2_N I *D sky130_fd_sc_hd__o2bb2ai_1
*I *9032:Q O *D sky130_fd_sc_hd__dfrtp_1
*CAP
1 *8585:C_N 0.000179913
2 *8562:B 0
3 *8784:B 0.000127458
4 *8820:A2_N 0.000141736
5 *9032:Q 0.000467024
6 *602:40 0.000446024
7 *602:16 0.000309776
8 *602:14 0.000773717
9 *8585:C_N *8785:A 0.000147196
10 *8585:C_N *603:48 0.000129111
11 *8585:C_N *759:12 0.000129177
12 *8784:B *759:12 0
13 *8784:B *761:16 8.09021e-06
14 *602:14 *9034:RESET_B 7.23602e-05
15 *602:14 *718:16 0.000275629
16 *602:14 *759:12 0.000102184
17 *602:14 *761:16 0
18 *602:40 *759:12 0.000373822
19 *8757:C1 *8585:C_N 0
20 *8820:B1 *8784:B 0.000113191
21 *8823:B1 *8784:B 7.1635e-05
22 *245:8 *8585:C_N 0.000117832
23 *260:73 *602:40 0
24 *427:6 *8585:C_N 8.23457e-05
25 *427:18 *8585:C_N 0.00020166
26 *430:64 *8820:A2_N 0.000161829
27 *430:64 *602:16 5.5201e-05
28 *430:64 *602:40 0.000122325
*RES
1 *9032:Q *602:14 13.115 
2 *602:14 *602:16 0.795 
3 *602:16 *8820:A2_N 4.12 
4 *602:16 *8784:B 8.255 
5 *602:14 *602:40 7.58 
6 *602:40 *8562:B 3.6 
7 *602:40 *8585:C_N 8.82 
*END

*D_NET *603 0.00799845
*CONN
*I *8785:A I *D sky130_fd_sc_hd__nand4_2
*I *8562:A I *D sky130_fd_sc_hd__nor2_2
*I *8585:B I *D sky130_fd_sc_hd__nor3b_1
*I *8822:A1_N I *D sky130_fd_sc_hd__o2bb2ai_1
*I *9033:Q O *D sky130_fd_sc_hd__dfrtp_2
*CAP
1 *8785:A 0.00011491
2 *8562:A 7.60983e-05
3 *8585:B 0
4 *8822:A1_N 0.000406187
5 *9033:Q 0
6 *603:48 0.000276677
7 *603:37 0.00188413
8 *603:4 0.00220465
9 *8822:A1_N *9024:RESET_B 0
10 *8822:A1_N *735:80 7.4027e-05
11 *603:37 *9028:CLK 1.56428e-05
12 *8571:A *603:37 3.99987e-05
13 *8571:B *603:37 0.000404385
14 *8585:A *603:37 0.000300888
15 *8585:A *603:48 4.82919e-05
16 *8585:C_N *8785:A 0.000147196
17 *8585:C_N *603:48 0.000129111
18 *8586:C *603:37 8.49205e-05
19 *8586:C *603:48 7.60398e-05
20 *8751:A_N *603:37 0.000401778
21 *8751:C *603:37 8.23457e-05
22 *8761:A1 *8562:A 6.81702e-05
23 *8785:B *8785:A 0
24 *8785:B *603:48 0
25 *8785:D *8562:A 0.000175686
26 *8799:A2 *8562:A 4.99619e-05
27 *8809:A1_N *8822:A1_N 0.00019637
28 *8809:A2_N *8822:A1_N 4.82863e-05
29 *8809:B1 *8822:A1_N 2.16917e-05
30 *8815:A2_N *603:37 0.000157397
31 *8822:A2_N *8822:A1_N 9.045e-05
32 *8822:B1 *8822:A1_N 2.30292e-05
33 *8823:B1 *8562:A 0.000134249
34 *248:32 *603:37 2.96426e-05
35 *258:23 *8785:A 6.71882e-05
36 *258:23 *603:48 5.13231e-05
37 *258:36 *8785:A 8.69182e-05
38 *393:8 *603:37 2.10034e-05
39 *427:18 *603:48 9.80032e-06
*RES
1 *9033:Q *603:4 1.6 
2 *603:4 *8822:A1_N 12.815 
3 *603:4 *603:37 27.045 
4 *603:37 *8585:B 1.6 
5 *603:37 *603:48 2.64 
6 *603:48 *8562:A 8.195 
7 *603:48 *8785:A 4.48 
*END

*D_NET *604 0.00878495
*CONN
*I *8838:A1 I *D sky130_fd_sc_hd__a21o_1
*I *8955:B1 I *D sky130_fd_sc_hd__o32a_1
*I *8697:B2 I *D sky130_fd_sc_hd__o32a_1
*I *9114:Q O *D sky130_fd_sc_hd__dfstp_1
*CAP
1 *8838:A1 0.000746934
2 *8955:B1 0
3 *8697:B2 0.000561442
4 *9114:Q 0
5 *604:16 0.00106869
6 *604:4 0.00125418
7 *8697:B2 *8733:B2 0.000148963
8 *8838:A1 *8733:A1 0.000283407
9 *8838:A1 *8842:A1 0.000884765
10 *8838:A1 *8892:A1 0.000116177
11 *8838:A1 *735:1279 0.000249921
12 *604:16 *8733:A1 8.70276e-05
13 *604:16 *8842:A1 6.7444e-05
14 *604:16 *9114:SET_B 5.13155e-05
15 *604:16 *611:14 0
16 *604:16 *611:20 0.000163199
17 *604:16 *613:16 0
18 *8608:A *8838:A1 7.28749e-05
19 *8685:A2 *8697:B2 2.65814e-06
20 *8697:A1 *8697:B2 2.19562e-06
21 *8697:A3 *8697:B2 8.09753e-05
22 *8728:A2 *8697:B2 0.00095966
23 *8734:A1 *8697:B2 0.000655413
24 *8838:B1 *8838:A1 1.47256e-05
25 *8892:B1 *8838:A1 3.00381e-05
26 *8955:A3 *8697:B2 0.000164352
27 *9008:A1 *8838:A1 0.000528351
28 *9061:D *8838:A1 5.00699e-05
29 *9114:D *8697:B2 0.000275548
30 *9114:D *604:16 7.66388e-05
31 *9165:D *8838:A1 5.83121e-06
32 *344:10 *8697:B2 6.15084e-05
33 *344:27 *8697:B2 0.000120655
*RES
1 *9114:Q *604:4 1.6 
2 *604:4 *604:16 13.1875 
3 *604:16 *8697:B2 22.94 
4 *604:16 *8955:B1 1.6 
5 *604:4 *8838:A1 27.3275 
*END

*D_NET *605 0.0185295
*CONN
*I *8640:A1 I *D sky130_fd_sc_hd__o221a_1
*I *8875:A1 I *D sky130_fd_sc_hd__mux2_1
*I *8909:B2 I *D sky130_fd_sc_hd__o32a_1
*I *8705:A1 I *D sky130_fd_sc_hd__a221o_1
*I *9065:Q O *D sky130_fd_sc_hd__dfstp_1
*CAP
1 *8640:A1 0.000236231
2 *8875:A1 0.000671803
3 *8909:B2 0
4 *8705:A1 0.00115689
5 *9065:Q 0
6 *605:66 0.00370678
7 *605:10 0.00186801
8 *605:4 0.00350987
9 *8640:A1 *8635:B1 0
10 *8640:A1 *714:171 3.25831e-05
11 *8705:A1 *8722:B2 0.000104095
12 *8705:A1 *615:45 0.000299175
13 *8705:A1 *644:37 1.7635e-05
14 *8705:A1 *644:39 0.000255222
15 *8875:A1 *8620:B 9.3062e-06
16 *8875:A1 *8625:A2 6.31717e-05
17 *8875:A1 *8633:B1 0.000963733
18 *8875:A1 *8636:B1 2.63122e-05
19 *8875:A1 *8860:A1 0.000301227
20 *8875:A1 *8867:A1 3.39064e-05
21 *8875:A1 *9153:CLK 0
22 *8875:A1 *651:71 1.14559e-05
23 *8875:A1 *657:49 0.000158297
24 *8875:A1 *735:1514 0
25 *605:10 *9065:SET_B 5.23485e-05
26 *605:66 *8613:A 8.22234e-06
27 *605:66 *9160:CLK 0.000161837
28 *605:66 *9160:RESET_B 4.51129e-05
29 *605:66 *655:6 0.000116438
30 *605:66 *655:34 1.4399e-05
31 *605:66 *655:43 2.04648e-05
32 *605:66 *662:53 0.00017556
33 *605:66 *735:707 2.20753e-05
34 *8604:A *8875:A1 0.000113797
35 *8619:A1 *8875:A1 0.000178314
36 *8633:A1 *8875:A1 9.26907e-06
37 *8633:B2 *8640:A1 1.34361e-05
38 *8636:A1 *605:66 7.06865e-05
39 *8636:A2 *8640:A1 4.31106e-05
40 *8636:A2 *8875:A1 7.06865e-05
41 *8640:C1 *8640:A1 0
42 *8649:A2 *605:66 6.51688e-05
43 *8649:B1 *605:66 1.59999e-05
44 *8650:C1 *605:66 9.91257e-05
45 *8652:C *605:66 0.000464505
46 *8705:A2 *8705:A1 6.7053e-05
47 *8708:B1 *8705:A1 8.41307e-05
48 *8713:B1 *8705:A1 0.000178808
49 *8728:A2 *8705:A1 7.30547e-05
50 *8909:A3 *605:10 1.20373e-05
51 *8909:B1 *605:10 4.66108e-05
52 *8911:A2 *605:10 4.43871e-06
53 *8911:A3 *8705:A1 3.62887e-05
54 *8911:A3 *605:10 2.34345e-05
55 *8911:B1 *605:10 2.92496e-05
56 *8917:A3 *8705:A1 0
57 *8919:A3 *8705:A1 3.64998e-06
58 *8919:B1 *8705:A1 1.48096e-05
59 *8957:A1 *8705:A1 3.22338e-05
60 *9065:D *605:10 7.31608e-05
61 *9150:D *8875:A1 0.000178321
62 *9154:D *8640:A1 0.000120364
63 *9158:D *605:66 0.000277223
64 *275:63 *8705:A1 7.17624e-05
65 *281:24 *8875:A1 0
66 *285:25 *605:66 0.000109931
67 *291:58 *8640:A1 0.000178504
68 *297:42 *8875:A1 0
69 *343:53 *8705:A1 0.000116563
70 *352:31 *8705:A1 0.000311886
71 *352:37 *8705:A1 0.000504179
72 *508:54 *8705:A1 1.08758e-05
73 *510:14 *8705:A1 0.000491043
74 *510:23 *8705:A1 0.00020444
75 *510:32 *8705:A1 9.50342e-06
76 *510:32 *605:10 3.31204e-05
77 *512:98 *605:10 4.66108e-05
*RES
1 *9065:Q *605:4 1.6 
2 *605:4 *605:10 10.7375 
3 *605:10 *8705:A1 34.27 
4 *605:10 *8909:B2 3.6 
5 *605:4 *605:66 43.0275 
6 *605:66 *8875:A1 22.83 
7 *605:66 *8640:A1 9.345 
*END

*D_NET *606 0.0155022
*CONN
*I *8642:B1 I *D sky130_fd_sc_hd__o221a_1
*I *8880:A1 I *D sky130_fd_sc_hd__o22a_1
*I *8911:B2 I *D sky130_fd_sc_hd__o32a_1
*I *8709:A1 I *D sky130_fd_sc_hd__a221o_1
*I *9066:Q O *D sky130_fd_sc_hd__dfstp_1
*CAP
1 *8642:B1 0.000117495
2 *8880:A1 0.000898226
3 *8911:B2 0.000278189
4 *8709:A1 0.0011493
5 *9066:Q 0
6 *606:52 0.00270046
7 *606:12 0.00166559
8 *606:4 0.00192284
9 *8642:B1 *8607:A_N 0
10 *8642:B1 *653:21 2.17931e-05
11 *8642:B1 *654:16 4.82919e-05
12 *8642:B1 *714:116 1.95461e-05
13 *8709:A1 *617:25 0
14 *8709:A1 *735:549 0
15 *8709:A1 *735:726 0
16 *8709:A1 *735:736 0
17 *8880:A1 *8889:A 0.000988293
18 *8880:A1 *714:95 0.000526291
19 *8880:A1 *714:116 0.000132218
20 *8880:A1 *745:61 0
21 *8911:B2 *609:58 0.000137454
22 *8911:B2 *735:736 0
23 *8911:B2 *735:746 0
24 *606:12 *608:33 0.000362948
25 *606:52 *8607:A_N 6.90876e-05
26 *606:52 *8889:A 0.000118081
27 *606:52 *9158:RESET_B 0.000424525
28 *606:52 *9160:CLK 4.9968e-05
29 *606:52 *9162:CLK 5.83121e-06
30 *606:52 *9162:RESET_B 0.00015737
31 *606:52 *608:33 0.000552744
32 *8630:A3 *8880:A1 0.000121087
33 *8642:A1 *8642:B1 0
34 *8642:C1 *8642:B1 7.08798e-05
35 *8649:A1 *606:52 1.9415e-05
36 *8649:A2 *8880:A1 0.000202095
37 *8709:A2 *8709:A1 1.37395e-05
38 *8713:A1 *8709:A1 0.00023159
39 *8880:B2 *8880:A1 8.53113e-06
40 *8905:A1 *8709:A1 0.000150678
41 *8905:A2 *8709:A1 2.30292e-05
42 *8907:B1 *8709:A1 2.05056e-05
43 *8909:A3 *8709:A1 0.000204769
44 *8911:B1 *8911:B2 4.66742e-05
45 *8958:A2 *8709:A1 3.4783e-05
46 *9057:D *8880:A1 1.07797e-05
47 *9063:D *8709:A1 2.19562e-06
48 *9085:D *8709:A1 0
49 *9085:D *8911:B2 0
50 *9121:D *8709:A1 2.86623e-05
51 *9162:D *606:52 1.83756e-05
52 *234:102 *606:52 5.02217e-05
53 *283:14 *606:52 1.08758e-05
54 *284:10 *8642:B1 4.75576e-05
55 *284:10 *8880:A1 1.07797e-05
56 *285:8 *8880:A1 6.34101e-06
57 *311:10 *8642:B1 0.000209025
58 *343:47 *8709:A1 1.34594e-05
59 *463:12 *8880:A1 1.52491e-05
60 *463:20 *8880:A1 1.03755e-05
61 *463:44 *8880:A1 8.17755e-05
62 *508:18 *8709:A1 0.000199955
63 *510:108 *8709:A1 0.00036168
64 *512:26 *8709:A1 0.000122337
65 *514:20 *8709:A1 5.05066e-06
66 *531:38 *8709:A1 0.000314445
67 *531:59 *8709:A1 0.000391464
68 *531:80 *8709:A1 9.73071e-05
*RES
1 *9066:Q *606:4 1.6 
2 *606:4 *606:12 6.1925 
3 *606:12 *8709:A1 29.265 
4 *606:12 *8911:B2 8.79 
5 *606:4 *606:52 28.8975 
6 *606:52 *8880:A1 26.91 
7 *606:52 *8642:B1 6.915 
*END

*D_NET *607 0.0159661
*CONN
*I *8647:B1 I *D sky130_fd_sc_hd__o221a_1
*I *8883:B2 I *D sky130_fd_sc_hd__o2bb2a_1
*I *8716:A1 I *D sky130_fd_sc_hd__a221o_1
*I *8913:B2 I *D sky130_fd_sc_hd__o32a_1
*I *9067:Q O *D sky130_fd_sc_hd__dfstp_1
*CAP
1 *8647:B1 3.19783e-05
2 *8883:B2 0.00132635
3 *8716:A1 0.000852846
4 *8913:B2 1.02931e-05
5 *9067:Q 2.07497e-05
6 *607:48 0.00409067
7 *607:14 0.0014017
8 *607:6 0.00329165
9 *8716:A1 *8716:B2 1.37895e-05
10 *8716:A1 *8717:A1 0.000118988
11 *8716:A1 *8721:B2 0
12 *8716:A1 *8960:B1 2.63172e-05
13 *8716:A1 *644:37 9.22294e-06
14 *8883:B2 *8605:A 2.0117e-05
15 *8883:B2 *8612:A 0
16 *8883:B2 *8857:A1 0
17 *8883:B2 *9059:RESET_B 0
18 *8883:B2 *627:14 4.82863e-05
19 *8883:B2 *651:10 7.19937e-05
20 *8883:B2 *660:14 0
21 *8883:B2 *735:1598 0
22 *607:6 *735:750 9.64638e-06
23 *607:14 *8727:B2 6.52265e-05
24 *607:14 *9068:SET_B 4.40899e-05
25 *607:14 *9084:CLK 9.71067e-05
26 *607:14 *609:14 0
27 *607:14 *735:760 3.77199e-05
28 *607:48 *9084:CLK 0
29 *607:48 *609:58 0.000202645
30 *607:48 *735:750 0.000246193
31 *8610:C1 *8883:B2 0.000111448
32 *8617:A2 *8883:B2 0.000112123
33 *8622:C1 *8883:B2 0.000114918
34 *8642:A1 *8883:B2 9.14049e-05
35 *8652:A_N *8883:B2 0.000157325
36 *8652:C *8647:B1 4.82919e-05
37 *8652:C *8883:B2 0
38 *8653:C1 *607:48 0.000701895
39 *8717:A2 *8716:A1 1.14673e-05
40 *8721:A2 *8716:A1 0.000173311
41 *8883:A1_N *8883:B2 1.75736e-05
42 *8911:A1 *607:14 0
43 *8911:A2 *607:14 0
44 *8913:B1 *607:14 0.000200713
45 *8917:A3 *607:14 0.000198753
46 *8919:B1 *607:14 6.1357e-05
47 *8959:A3 *8716:A1 0.000129488
48 *8959:A3 *8913:B2 4.77719e-05
49 *8959:A3 *607:14 3.57349e-05
50 *8960:B2 *8716:A1 1.00941e-05
51 *9118:D *8716:A1 0.000283168
52 *9119:D *8716:A1 0
53 *9148:D *8883:B2 8.05768e-05
54 *9156:D *8647:B1 1.71416e-05
55 *9156:D *8883:B2 6.62361e-05
56 *291:38 *8647:B1 4.82919e-05
57 *293:42 *8883:B2 0.000416204
58 *293:59 *8647:B1 1.01643e-05
59 *293:59 *8883:B2 4.36573e-06
60 *293:70 *8647:B1 8.7152e-06
61 *293:93 *607:48 3.65787e-05
62 *313:19 *8883:B2 0.00015356
63 *351:12 *8716:A1 0.000100874
64 *463:44 *8883:B2 0.000128021
65 *508:54 *607:14 0.000157555
66 *508:58 *607:14 0
67 *510:23 *607:14 0
68 *510:50 *8913:B2 4.77719e-05
69 *510:50 *607:14 2.55587e-05
70 *515:30 *8716:A1 0.00012008
*RES
1 *9067:Q *607:6 1.8775 
2 *607:6 *607:14 15.22 
3 *607:14 *8913:B2 2.05 
4 *607:14 *8716:A1 21.23 
5 *607:6 *607:48 12.0158 
6 *607:48 *8883:B2 30.3375 
7 *607:48 *8647:B1 4.5375 
*END

*D_NET *608 0.0183747
*CONN
*I *8650:A2 I *D sky130_fd_sc_hd__o311a_1
*I *8721:A1 I *D sky130_fd_sc_hd__a221o_1
*I *8886:A1 I *D sky130_fd_sc_hd__o22a_1
*I *8915:B2 I *D sky130_fd_sc_hd__o32a_1
*I *9068:Q O *D sky130_fd_sc_hd__dfstp_1
*CAP
1 *8650:A2 0
2 *8721:A1 0.00227391
3 *8886:A1 0.000533826
4 *8915:B2 0.000267799
5 *9068:Q 0
6 *608:35 0.00328559
7 *608:33 0.00206724
8 *608:4 0.00185719
9 *8721:A1 *8717:A1 0
10 *8721:A1 *9146:SET_B 0.00025508
11 *8721:A1 *615:45 4.7571e-05
12 *8721:A1 *615:70 0.000397641
13 *8721:A1 *644:39 0
14 *8721:A1 *713:42 0.000729862
15 *8721:A1 *735:519 4.21243e-05
16 *8886:A1 *8846:A1 0.000404395
17 *8886:A1 *8889:A 0
18 *8886:A1 *9139:CLK 0.000158297
19 *8886:A1 *618:62 0.00014365
20 *8886:A1 *714:10 3.11859e-05
21 *8915:B2 *9068:SET_B 8.12264e-05
22 *608:33 *9066:SET_B 7.00685e-05
23 *608:33 *9068:SET_B 8.375e-05
24 *608:33 *9158:RESET_B 0.000168195
25 *608:33 *9162:CLK 3.57349e-05
26 *608:33 *9162:RESET_B 5.9189e-05
27 *608:33 *713:125 4.82919e-05
28 *608:33 *713:134 1.12578e-05
29 *608:33 *713:162 0.000570022
30 *608:35 *8608:B 0.000312769
31 *608:35 *8654:A 8.08439e-05
32 *608:35 *8846:A1 0
33 *608:35 *612:42 0
34 *608:35 *655:10 6.28765e-05
35 *608:35 *714:10 6.06649e-05
36 *8610:A3 *608:35 0.000162318
37 *8650:B1 *608:35 1.34361e-05
38 *8656:A2 *608:35 0
39 *8717:B1 *8721:A1 1.70069e-05
40 *8721:A2 *8721:A1 3.38641e-05
41 *8721:B1 *8721:A1 3.26889e-05
42 *8880:B1 *8886:A1 2.66765e-05
43 *8915:A1 *8915:B2 0.000237238
44 *8915:B1 *8915:B2 0.000196575
45 *8958:A3 *8721:A1 0
46 *9002:A1 *608:33 0.000423631
47 *9002:A1 *608:35 0
48 *9059:D *8886:A1 0.00011852
49 *9066:D *608:33 0.00012657
50 *9067:D *8915:B2 0
51 *9069:D *8915:B2 0.000112907
52 *9146:D *8721:A1 0.000368831
53 *9147:D *608:35 0
54 *9162:D *608:33 3.00381e-05
55 *285:29 *608:35 0.000108322
56 *285:31 *608:35 0.00022304
57 *286:10 *608:35 6.82231e-05
58 *319:25 *608:35 8.09021e-06
59 *319:27 *608:35 4.04946e-05
60 *319:33 *8886:A1 0.000148632
61 *319:33 *608:35 5.25832e-05
62 *508:75 *8915:B2 0.000185793
63 *510:50 *8915:B2 8.80293e-06
64 *512:48 *8721:A1 0.000194097
65 *515:30 *8721:A1 0
66 *574:18 *8721:A1 0.000380391
67 *606:12 *608:33 0.000362948
68 *606:52 *608:33 0.000552744
*RES
1 *9068:Q *608:4 1.6 
2 *608:4 *8915:B2 12.7025 
3 *608:4 *608:33 33.7325 
4 *608:33 *608:35 11.7075 
5 *608:35 *8886:A1 20.0725 
6 *608:35 *8721:A1 16.8086 
7 *608:33 *8650:A2 3.6 
*END

*D_NET *609 0.0177369
*CONN
*I *8653:A1 I *D sky130_fd_sc_hd__o221a_1
*I *8889:A I *D sky130_fd_sc_hd__or2_1
*I *8917:B2 I *D sky130_fd_sc_hd__o32a_1
*I *8727:A1 I *D sky130_fd_sc_hd__a221o_1
*I *9069:Q O *D sky130_fd_sc_hd__dfstp_1
*CAP
1 *8653:A1 0.000128018
2 *8889:A 0.00131684
3 *8917:B2 8.05268e-06
4 *8727:A1 0.00117952
5 *9069:Q 0
6 *609:58 0.00386529
7 *609:14 0.00172695
8 *609:4 0.00295981
9 *8653:A1 *8644:A 4.66108e-05
10 *8653:A1 *714:116 0.00016493
11 *8727:A1 *8709:B2 1.88175e-05
12 *8727:A1 *8727:B2 0.00023629
13 *8889:A *8607:A_N 0.000141365
14 *8889:A *8610:A1 0
15 *8889:A *8610:A2 0
16 *8889:A *8617:B1 0.000184576
17 *8889:A *8846:A1 0
18 *8889:A *655:47 3.18137e-05
19 *8889:A *714:116 0.000483557
20 *609:14 *9068:SET_B 9.37731e-05
21 *609:14 *9084:CLK 4.65607e-05
22 *609:58 *8651:A2 0
23 *609:58 *9158:CLK 0.000234777
24 *609:58 *653:6 0.000170953
25 *8630:B1 *8889:A 0.000155928
26 *8649:A1 *8889:A 2.39856e-05
27 *8653:A2 *8653:A1 4.66108e-05
28 *8653:B1 *8653:A1 4.12014e-05
29 *8653:B1 *609:58 4.99619e-05
30 *8653:B2 *8653:A1 4.55864e-06
31 *8880:A1 *8889:A 0.000988293
32 *8880:B1 *8889:A 7.23533e-05
33 *8880:B2 *8889:A 0.000216106
34 *8886:A1 *8889:A 0
35 *8886:B1 *8889:A 0.000533449
36 *8911:A1 *609:14 6.82228e-05
37 *8911:A1 *609:58 2.34642e-06
38 *8911:A2 *609:14 1.85674e-05
39 *8911:A2 *609:58 0.000279787
40 *8911:A3 *609:58 2.30292e-05
41 *8911:B1 *609:58 9.27255e-06
42 *8911:B2 *609:58 0.000137454
43 *8917:A3 *8917:B2 4.82863e-05
44 *8917:A3 *609:14 6.59587e-06
45 *9057:D *8889:A 0.000159957
46 *9059:D *8889:A 4.40643e-05
47 *9084:D *8727:A1 0.000878637
48 *9160:D *609:58 5.09218e-05
49 *206:39 *8889:A 6.35622e-05
50 *210:16 *8889:A 8.53113e-06
51 *210:24 *8889:A 7.63476e-05
52 *234:34 *8727:A1 1.35084e-05
53 *463:12 *8889:A 0
54 *508:54 *8727:A1 0.000223565
55 *508:66 *8917:B2 4.94457e-05
56 *510:50 *8727:A1 8.66976e-06
57 *510:50 *609:14 2.03321e-05
58 *512:12 *8727:A1 1.92979e-05
59 *512:87 *8727:A1 1.7635e-05
60 *512:87 *609:14 7.9642e-06
61 *515:30 *8727:A1 9.22816e-06
62 *606:52 *8889:A 0.000118081
63 *607:14 *609:14 0
64 *607:48 *609:58 0.000202645
*RES
1 *9069:Q *609:4 1.6 
2 *609:4 *609:14 10.1975 
3 *609:14 *8727:A1 8.99353 
4 *609:14 *8917:B2 4.05 
5 *609:4 *609:58 31.61 
6 *609:58 *8889:A 42.7825 
7 *609:58 *8653:A1 6.5175 
*END

*D_NET *610 0.013232
*CONN
*I *8656:A1 I *D sky130_fd_sc_hd__a21bo_1
*I *8892:A1 I *D sky130_fd_sc_hd__a21o_1
*I *8733:A1 I *D sky130_fd_sc_hd__a221o_1
*I *8919:B2 I *D sky130_fd_sc_hd__o32a_1
*I *9070:Q O *D sky130_fd_sc_hd__dfstp_1
*CAP
1 *8656:A1 0.000328801
2 *8892:A1 0.000269283
3 *8733:A1 0.0013502
4 *8919:B2 0.000800107
5 *9070:Q 0
6 *610:21 0.00283383
7 *610:15 0.00224818
8 *610:4 0.00150513
9 *8656:A1 *735:560 4.38278e-05
10 *8733:A1 *8956:B1 1.83538e-05
11 *8733:A1 *9114:CLK 2.49909e-05
12 *8733:A1 *611:20 5.38901e-05
13 *8919:B2 *713:112 4.43682e-05
14 *8919:B2 *735:560 7.50257e-05
15 *610:15 *735:560 0.000443048
16 *610:21 *8747:A1 0.000187071
17 *610:21 *9005:A1 0.000360543
18 *610:21 *9166:SET_B 0.000100156
19 *610:21 *647:20 0.000128354
20 *610:21 *650:10 0
21 *610:21 *650:18 0
22 *610:21 *665:10 2.54436e-05
23 *610:21 *707:31 7.07879e-05
24 *610:21 *707:35 0
25 *610:21 *735:562 5.47337e-05
26 *610:21 *735:564 8.9648e-05
27 *610:21 *735:588 3.98952e-05
28 *610:21 *735:597 0.000325844
29 *610:21 *735:599 5.92191e-05
30 *610:21 *735:608 0.000157595
31 *8656:B1_N *8656:A1 5.43769e-05
32 *8658:A *610:21 9.14049e-05
33 *8703:B1 *8733:A1 6.83186e-05
34 *8733:A2 *8733:A1 3.87339e-05
35 *8749:B1 *610:21 0.000277664
36 *8838:A1 *8733:A1 0.000283407
37 *8838:A1 *8892:A1 0.000116177
38 *8892:B1 *8892:A1 8.8266e-05
39 *8919:A3 *8919:B2 0.000171197
40 *9070:D *8919:B2 5.27873e-05
41 *9140:D *610:21 0.000250609
42 *237:71 *610:21 0
43 *292:74 *610:21 0
44 *508:54 *8919:B2 1.37328e-05
45 *604:16 *8733:A1 8.70276e-05
*RES
1 *9070:Q *610:4 1.6 
2 *610:4 *8919:B2 11.4625 
3 *610:4 *610:15 9.5925 
4 *610:15 *610:21 31.39 
5 *610:21 *8733:A1 18.19 
6 *610:21 *8892:A1 5.155 
7 *610:15 *8656:A1 5.77 
*END

*D_NET *611 0.00790225
*CONN
*I *8842:A1 I *D sky130_fd_sc_hd__o21a_1
*I *8703:A1 I *D sky130_fd_sc_hd__o22a_1
*I *8956:B1 I *D sky130_fd_sc_hd__o32a_1
*I *9115:Q O *D sky130_fd_sc_hd__dfstp_1
*CAP
1 *8842:A1 0.00114521
2 *8703:A1 7.89035e-05
3 *8956:B1 0.000426584
4 *9115:Q 0.000306064
5 *611:20 0.000818938
6 *611:14 0.00176472
7 *8703:A1 *8512:C1 4.82919e-05
8 *8703:A1 *613:16 4.40725e-05
9 *8842:A1 *735:1279 4.7043e-05
10 *8956:B1 *9114:CLK 0.000372922
11 *8956:B1 *617:25 3.76596e-05
12 *611:14 *9114:SET_B 0.000188502
13 *611:14 *613:16 0
14 *611:14 *711:78 6.20667e-05
15 *8703:A2 *8703:A1 5.4155e-06
16 *8703:B1 *8956:B1 9.50342e-06
17 *8733:A1 *8956:B1 1.83538e-05
18 *8733:A1 *611:20 5.38901e-05
19 *8838:A1 *8842:A1 0.000884765
20 *8841:C1 *8842:A1 8.49205e-05
21 *8842:A2 *8842:A1 2.75145e-05
22 *8842:B1 *8842:A1 2.16833e-05
23 *8955:B2 *8956:B1 0.00010339
24 *9047:D *8842:A1 4.92062e-05
25 *9061:D *8842:A1 0.000267584
26 *234:22 *611:14 0
27 *237:71 *8842:A1 0.000665308
28 *352:62 *8956:B1 0
29 *352:73 *8956:B1 0
30 *531:20 *8956:B1 4.55864e-06
31 *572:20 *8703:A1 0.000116151
32 *577:26 *8703:A1 1.83847e-05
33 *604:16 *8842:A1 6.7444e-05
34 *604:16 *611:14 0
35 *604:16 *611:20 0.000163199
*RES
1 *9115:Q *611:14 11.6225 
2 *611:14 *611:20 4.71 
3 *611:20 *8956:B1 12.725 
4 *611:20 *8703:A1 7.79 
5 *611:14 *8842:A1 29.51 
*END

*D_NET *612 0.0145298
*CONN
*I *8610:A2 I *D sky130_fd_sc_hd__o311a_1
*I *8846:A1 I *D sky130_fd_sc_hd__o21a_1
*I *8957:B1 I *D sky130_fd_sc_hd__o32a_1
*I *8708:A1 I *D sky130_fd_sc_hd__o22a_1
*I *9116:Q O *D sky130_fd_sc_hd__dfstp_1
*CAP
1 *8610:A2 0.000244689
2 *8846:A1 0.00180551
3 *8957:B1 0.00019839
4 *8708:A1 0.00053072
5 *9116:Q 0
6 *612:42 0.00345111
7 *612:10 0.000907891
8 *612:4 0.00157969
9 *8610:A2 *8617:B1 8.889e-05
10 *8708:A1 *9117:SET_B 0
11 *8708:A1 *613:12 0
12 *8708:A1 *613:16 0
13 *8708:A1 *617:25 0.00126701
14 *8708:A1 *618:14 6.55328e-05
15 *8846:A1 *8617:B1 0
16 *8846:A1 *8841:A1 2.03321e-05
17 *8846:A1 *8891:A1 2.39642e-05
18 *8846:A1 *8891:C1 2.56866e-05
19 *8846:A1 *9059:CLK 0.00020613
20 *8846:A1 *9060:RESET_B 0
21 *8846:A1 *9061:RESET_B 0.000110403
22 *8846:A1 *9139:CLK 0
23 *8846:A1 *629:10 0.000141711
24 *8846:A1 *630:14 0
25 *8846:A1 *630:27 0.000155315
26 *8846:A1 *630:40 3.90495e-05
27 *8846:A1 *712:8 0.000114492
28 *8846:A1 *712:25 0
29 *8846:A1 *714:10 0
30 *8957:B1 *9116:SET_B 4.30304e-05
31 *8957:B1 *614:56 0.000105664
32 *8957:B1 *617:25 0.000105426
33 *8957:B1 *735:530 5.53549e-06
34 *612:42 *9145:SET_B 0.000150952
35 *612:42 *9185:A 5.88334e-05
36 *612:42 *714:84 9.70988e-05
37 *8841:B1 *8846:A1 0
38 *8846:A2 *8846:A1 4.99619e-05
39 *8846:B1 *8846:A1 0.000284642
40 *8850:A2 *8846:A1 0
41 *8881:B1 *8846:A1 0
42 *8884:A1 *8846:A1 5.85872e-05
43 *8886:A1 *8846:A1 0.000404395
44 *8886:B1 *8846:A1 7.97083e-05
45 *8886:B2 *8846:A1 8.42161e-05
46 *8889:A *8610:A2 0
47 *8889:A *8846:A1 0
48 *8890:A2 *8846:A1 0
49 *8891:A3 *8846:A1 0.000293719
50 *8957:B2 *8957:B1 0.000122331
51 *9004:A2 *612:42 0.000230435
52 *9007:A2 *612:42 0.00023408
53 *9007:B1 *612:42 0.000120493
54 *9146:D *612:42 0.000234669
55 *9147:D *8610:A2 9.62187e-05
56 *9147:D *612:42 7.48995e-05
57 *210:16 *8846:A1 1.46498e-05
58 *210:24 *8846:A1 0.000113199
59 *275:95 *8708:A1 0.000133492
60 *286:10 *8610:A2 0
61 *385:23 *8846:A1 0.000157316
62 *385:90 *8846:A1 0
63 *385:103 *8846:A1 0
64 *461:18 *8846:A1 2.05641e-05
65 *463:90 *8846:A1 0.000179207
66 *608:35 *8846:A1 0
67 *608:35 *612:42 0
*RES
1 *9116:Q *612:4 1.6 
2 *612:4 *612:10 4.7075 
3 *612:10 *8708:A1 18.24 
4 *612:10 *8957:B1 8.115 
5 *612:4 *612:42 21.89 
6 *612:42 *8846:A1 41.3728 
7 *612:42 *8610:A2 8.6625 
*END

*D_NET *613 0.0147668
*CONN
*I *8617:B1 I *D sky130_fd_sc_hd__o221a_1
*I *8958:B1 I *D sky130_fd_sc_hd__o32a_1
*I *8850:A1 I *D sky130_fd_sc_hd__o21a_1
*I *8712:D I *D sky130_fd_sc_hd__or4_1
*I *9117:Q O *D sky130_fd_sc_hd__dfstp_1
*CAP
1 *8617:B1 0.00159333
2 *8958:B1 0.000351337
3 *8850:A1 0.00186889
4 *8712:D 0.000308025
5 *9117:Q 6.11033e-05
6 *613:16 0.00351431
7 *613:12 0.00179475
8 *613:8 0.00176045
9 *8617:B1 *8748:A1 0.000197796
10 *8617:B1 *8748:B1 0.000124007
11 *8617:B1 *9146:CLK 9.68634e-05
12 *8617:B1 *9146:SET_B 8.46077e-05
13 *8617:B1 *614:56 9.79963e-05
14 *8617:B1 *647:20 0.000101273
15 *8617:B1 *714:29 0.000169652
16 *8850:A1 *9047:CLK 0.000130862
17 *8850:A1 *9141:CLK 9.34967e-05
18 *8850:A1 *735:1279 1.01356e-05
19 *613:12 *9117:SET_B 7.26629e-05
20 *613:16 *9064:SET_B 0
21 *613:16 *9114:SET_B 0
22 *613:16 *9117:SET_B 0.000328338
23 *613:16 *617:25 0
24 *613:16 *619:14 6.55406e-05
25 *613:16 *711:20 0
26 *613:16 *735:627 0
27 *613:16 *735:653 6.55406e-05
28 *8610:A2 *8617:B1 8.889e-05
29 *8617:A1 *8617:B1 0
30 *8617:C1 *8617:B1 5.94962e-05
31 *8703:A1 *613:16 4.40725e-05
32 *8708:A1 *613:12 0
33 *8708:A1 *613:16 0
34 *8712:A *8712:D 0.000120159
35 *8749:B1 *8617:B1 6.52265e-05
36 *8837:A2 *8850:A1 4.32126e-05
37 *8846:A1 *8617:B1 0
38 *8850:A2 *8850:A1 0
39 *8850:B1 *8850:A1 7.60965e-05
40 *8889:A *8617:B1 0.000184576
41 *8958:B2 *8958:B1 8.07279e-05
42 *9008:A1 *8850:A1 0.000255226
43 *9047:D *8850:A1 0.000116158
44 *9049:D *8850:A1 0.000203178
45 *9135:D *613:16 0.000141606
46 *59:74 *8850:A1 0
47 *59:91 *8850:A1 0
48 *234:22 *8850:A1 0.000180544
49 *234:135 *8850:A1 3.1562e-06
50 *275:95 *613:16 3.85884e-05
51 *340:86 *8712:D 4.66108e-05
52 *572:20 *613:16 0
53 *574:18 *8958:B1 0.000128271
54 *604:16 *613:16 0
55 *611:14 *613:16 0
*RES
1 *9117:Q *613:8 2.5825 
2 *613:8 *613:12 3.89 
3 *613:12 *613:16 26.84 
4 *613:16 *8712:D 6.655 
5 *613:16 *8850:A1 33.38 
6 *613:12 *8958:B1 9.255 
7 *613:8 *8617:B1 34.28 
*END

*D_NET *614 0.0197196
*CONN
*I *8619:B1 I *D sky130_fd_sc_hd__o221a_1
*I *8854:A1 I *D sky130_fd_sc_hd__o21a_1
*I *8959:B1 I *D sky130_fd_sc_hd__o32a_1
*I *8717:A1 I *D sky130_fd_sc_hd__a211o_1
*I *9118:Q O *D sky130_fd_sc_hd__dfstp_2
*CAP
1 *8619:B1 2.42508e-05
2 *8854:A1 0.00209052
3 *8959:B1 0.000145043
4 *8717:A1 0.000410702
5 *9118:Q 0
6 *614:60 0.0022121
7 *614:56 0.00307557
8 *614:8 0.00059305
9 *614:4 0.00301554
10 *8619:B1 *656:35 0
11 *8717:A1 *8727:B2 5.43211e-05
12 *8717:A1 *644:39 0.000333903
13 *8854:A1 *8636:B1 0
14 *8854:A1 *8857:A1 0
15 *8854:A1 *8863:A1 0.000117825
16 *8854:A1 *8867:A1 0
17 *8854:A1 *8877:B1 0
18 *8854:A1 *619:56 0
19 *8854:A1 *638:10 7.81221e-05
20 *8854:A1 *638:14 0.000303063
21 *8854:A1 *656:27 0
22 *8959:B1 *644:39 0.000374933
23 *614:56 *8609:A 4.80285e-05
24 *614:56 *8749:A1 0.000308724
25 *614:56 *9007:A1 0.000118352
26 *614:56 *9184:A 1.9415e-05
27 *614:56 *651:19 5.83121e-06
28 *614:56 *651:28 3.26889e-05
29 *614:56 *656:72 0.00015896
30 *614:56 *713:8 0.000134947
31 *614:60 *616:54 4.30301e-05
32 *614:60 *651:43 9.17274e-05
33 *8608:A *614:56 0.000234674
34 *8610:C1 *614:56 0.000111448
35 *8617:A1 *614:56 7.67415e-06
36 *8617:A2 *614:56 0.000155491
37 *8617:B1 *614:56 9.79963e-05
38 *8617:C1 *614:56 3.00381e-05
39 *8619:B2 *8619:B1 3.17194e-05
40 *8619:B2 *8854:A1 7.63204e-05
41 *8619:B2 *614:60 5.53249e-06
42 *8622:A1 *8854:A1 0.00011325
43 *8622:A1 *614:60 0.000214383
44 *8622:A2 *614:56 3.83194e-05
45 *8716:A1 *8717:A1 0.000118988
46 *8717:A2 *8717:A1 5.18317e-06
47 *8717:C1 *8717:A1 1.42698e-05
48 *8721:A1 *8717:A1 0
49 *8853:C *8854:A1 0.000107241
50 *8855:A_N *8854:A1 5.30242e-05
51 *8856:C1 *8854:A1 0
52 *8870:A *8854:A1 2.88679e-05
53 *8870:B *8854:A1 1.01869e-05
54 *8877:A3 *8854:A1 3.26822e-05
55 *8883:A2_N *8854:A1 0
56 *8902:A *614:56 9.80943e-06
57 *8917:A3 *8959:B1 1.52945e-05
58 *8957:A1 *614:56 7.97984e-05
59 *8957:A3 *614:56 4.66108e-05
60 *8957:B1 *614:56 0.000105664
61 *8957:B2 *614:56 2.26018e-05
62 *8958:A2 *614:56 2.8585e-06
63 *8962:A1 *8959:B1 4.77719e-05
64 *9004:A2 *614:56 2.0514e-05
65 *9005:B1 *614:56 0.000121437
66 *9007:B1 *614:56 4.82863e-05
67 *9055:D *8854:A1 9.71067e-05
68 *9084:D *8959:B1 0.000102863
69 *9120:D *614:56 0.00022786
70 *9148:D *614:56 8.23457e-05
71 *59:16 *8854:A1 0
72 *211:18 *8854:A1 0.00031041
73 *211:26 *8854:A1 0.000710361
74 *211:92 *8854:A1 0.000446541
75 *237:107 *614:56 8.34281e-06
76 *286:10 *614:56 4.99619e-05
77 *293:138 *614:56 0.000539437
78 *351:16 *8717:A1 0.000138264
79 *351:16 *8959:B1 0.000219692
80 *351:31 *8959:B1 0.000116165
81 *351:33 *8959:B1 8.52883e-05
82 *464:70 *8854:A1 0
83 *486:10 *8854:A1 7.00066e-05
84 *509:77 *614:56 2.30292e-05
85 *512:48 *8717:A1 0
86 *514:20 *8717:A1 0.000381177
87 *531:106 *8959:B1 0.000121643
88 *572:20 *8854:A1 0.000190514
*RES
1 *9118:Q *614:4 1.6 
2 *614:4 *614:8 2.45 
3 *614:8 *8717:A1 17.425 
4 *614:8 *8959:B1 9.18 
5 *614:4 *614:56 48.595 
6 *614:56 *614:60 4.655 
7 *614:60 *8854:A1 43.237 
8 *614:60 *8619:B1 4.215 
*END

*D_NET *615 0.0219923
*CONN
*I *8622:B1 I *D sky130_fd_sc_hd__o221a_1
*I *8857:A1 I *D sky130_fd_sc_hd__o21a_1
*I *8722:B2 I *D sky130_fd_sc_hd__o32a_1
*I *8960:B1 I *D sky130_fd_sc_hd__o32a_1
*I *9119:Q O *D sky130_fd_sc_hd__dfstp_2
*CAP
1 *8622:B1 2.11983e-05
2 *8857:A1 0.00194308
3 *8722:B2 0.00229397
4 *8960:B1 0.000306509
5 *9119:Q 2.08101e-05
6 *615:70 0.00444592
7 *615:45 0.0050566
8 *615:6 0.000608309
9 *8722:B2 *8693:A1 8.7427e-05
10 *8857:A1 *8505:C 7.25036e-05
11 *8857:A1 *8506:A 5.99926e-05
12 *8857:A1 *8506:B 0
13 *8857:A1 *8506:C 0
14 *8857:A1 *8506:D 0
15 *8857:A1 *8612:A 0
16 *8857:A1 *8844:B 0
17 *8857:A1 *8877:A1 5.56168e-05
18 *8857:A1 *8882:A 0.000137571
19 *8857:A1 *624:42 0.000111189
20 *8857:A1 *626:10 0
21 *8857:A1 *626:12 2.16389e-05
22 *8857:A1 *631:44 0
23 *8857:A1 *656:27 0
24 *8960:B1 *8727:B2 0.000187714
25 *615:45 *644:39 0.000299076
26 *615:45 *735:519 6.43496e-05
27 *615:70 *9146:SET_B 0.000444781
28 *615:70 *616:54 0
29 *615:70 *713:42 0.00126733
30 *615:70 *735:519 0.000462744
31 *8509:A_N *8857:A1 0.000196267
32 *8509:B *8857:A1 6.55328e-05
33 *8697:A3 *8722:B2 0.000106292
34 *8705:A1 *8722:B2 0.000104095
35 *8705:A1 *615:45 0.000299175
36 *8713:B1 *8722:B2 0.000205014
37 *8716:A1 *8960:B1 2.63172e-05
38 *8721:A1 *615:45 4.7571e-05
39 *8721:A1 *615:70 0.000397641
40 *8728:A1 *8722:B2 0
41 *8846:A2 *8857:A1 0
42 *8849:C1 *8857:A1 7.66579e-05
43 *8854:A1 *8857:A1 0
44 *8863:A2 *8857:A1 0
45 *8873:A2 *8857:A1 0.000139933
46 *8877:A3 *8857:A1 0
47 *8880:B1 *8857:A1 0.000146998
48 *8883:A2_N *8857:A1 0.000337369
49 *8883:B2 *8857:A1 0
50 *8959:A1 *8960:B1 5.91922e-06
51 *8960:A1 *8960:B1 5.10546e-05
52 *8960:B2 *8960:B1 0.000171299
53 *8961:A3 *615:45 0.000181348
54 *9084:D *8722:B2 0.00104641
55 *9118:D *8960:B1 8.63188e-05
56 *9120:D *615:45 8.23457e-05
57 *208:73 *8722:B2 0
58 *292:142 *8622:B1 4.82919e-05
59 *463:74 *8857:A1 0
60 *464:70 *8857:A1 0
61 *477:12 *8857:A1 0
62 *486:10 *8857:A1 0
63 *509:27 *8960:B1 0
64 *518:10 *8960:B1 8.23457e-05
65 *518:10 *615:6 0
66 *518:10 *615:45 0.000119762
67 *571:28 *8722:B2 0
*RES
1 *9119:Q *615:6 1.96 
2 *615:6 *8960:B1 10.9848 
3 *615:6 *615:45 9.09617 
4 *615:45 *8722:B2 11.1671 
5 *615:45 *615:70 7.03417 
6 *615:70 *8857:A1 40.74 
7 *615:70 *8622:B1 4.05 
*END

*D_NET *616 0.0156349
*CONN
*I *8860:A1 I *D sky130_fd_sc_hd__mux2_1
*I *8626:B1 I *D sky130_fd_sc_hd__o221a_1
*I *8728:B2 I *D sky130_fd_sc_hd__o32a_1
*I *8961:B1 I *D sky130_fd_sc_hd__o32a_1
*I *9120:Q O *D sky130_fd_sc_hd__dfstp_1
*CAP
1 *8860:A1 0.000971892
2 *8626:B1 0
3 *8728:B2 0.000528714
4 *8961:B1 0.000160191
5 *9120:Q 0
6 *616:54 0.00440562
7 *616:8 0.00127454
8 *616:4 0.00401936
9 *8728:B2 *9117:CLK 0.000170137
10 *8728:B2 *713:55 3.72899e-05
11 *8728:B2 *713:66 0.000276546
12 *8860:A1 *8625:A1 0.00011379
13 *8860:A1 *8625:A2 0.000146779
14 *8860:A1 *8625:A3 1.12803e-05
15 *8860:A1 *8863:B1 1.22676e-05
16 *8860:A1 *8867:A1 0
17 *8860:A1 *712:97 0
18 *8860:A1 *735:1481 0
19 *8961:B1 *9120:CLK 2.65522e-05
20 *616:8 *9120:SET_B 3.74308e-05
21 *616:54 *8636:B1 0.000189005
22 *616:54 *651:43 4.61196e-05
23 *616:54 *660:14 9.23155e-05
24 *616:54 *735:530 0
25 *8619:B2 *616:54 0.000120186
26 *8626:A1 *8860:A1 3.35199e-05
27 *8626:B2 *8860:A1 4.82863e-05
28 *8713:A1 *8728:B2 0.000116158
29 *8713:B1 *8728:B2 3.60648e-06
30 *8860:S *8860:A1 4.17992e-05
31 *8872:B *8860:A1 0.000223286
32 *8875:A0 *8860:A1 0
33 *8875:A1 *8860:A1 0.000301227
34 *8875:S *8860:A1 0.000489651
35 *8876:A *8860:A1 0
36 *8907:A1 *8728:B2 0.000102746
37 *8911:A3 *8728:B2 7.40907e-05
38 *8961:A2 *8961:B1 4.52283e-05
39 *9056:D *8860:A1 0.000233101
40 *9085:D *8728:B2 0.000774498
41 *9116:D *8728:B2 7.00115e-05
42 *9120:D *8728:B2 9.0444e-05
43 *9120:D *616:8 2.75229e-05
44 *9150:D *8860:A1 0.000194835
45 *9151:D *8860:A1 4.66826e-05
46 *234:34 *616:54 0
47 *352:37 *8728:B2 0
48 *519:14 *8961:B1 3.51971e-05
49 *614:60 *616:54 4.30301e-05
50 *615:70 *616:54 0
*RES
1 *9120:Q *616:4 1.6 
2 *616:4 *616:8 6.5025 
3 *616:8 *8961:B1 4.27 
4 *616:8 *8728:B2 19.775 
5 *616:4 *616:54 15.9745 
6 *616:54 *8626:B1 1.6 
7 *616:54 *8860:A1 28.865 
*END

*D_NET *617 0.0184863
*CONN
*I *8630:A2 I *D sky130_fd_sc_hd__o311a_1
*I *8865:B1 I *D sky130_fd_sc_hd__o2bb2a_1
*I *8734:B2 I *D sky130_fd_sc_hd__o32a_1
*I *8962:B1 I *D sky130_fd_sc_hd__o32a_1
*I *9121:Q O *D sky130_fd_sc_hd__dfstp_1
*CAP
1 *8630:A2 0.00164059
2 *8865:B1 0.00215087
3 *8734:B2 0.000178616
4 *8962:B1 0.000176154
5 *9121:Q 0
6 *617:25 0.00336834
7 *617:8 0.0013999
8 *617:4 0.00182548
9 *8630:A2 *8610:A1 6.02202e-05
10 *8630:A2 *9144:CLK 2.11084e-05
11 *8630:A2 *9144:SET_B 0.000153522
12 *8630:A2 *644:90 7.03141e-05
13 *8734:B2 *8512:C1 0.000233004
14 *8865:B1 *8512:C1 0.00139901
15 *8865:B1 *8888:A 9.80943e-06
16 *8865:B1 *8891:A1 0.000139478
17 *8865:B1 *9060:CLK 0.000124895
18 *8962:B1 *9121:CLK 3.54536e-05
19 *8962:B1 *644:90 0.000204136
20 *617:8 *644:90 0.000339918
21 *617:25 *9114:CLK 0.000355618
22 *617:25 *707:10 0.000528727
23 *617:25 *707:78 7.42356e-05
24 *617:25 *711:101 0.000330559
25 *617:25 *735:530 0.000116569
26 *617:25 *735:542 0
27 *617:25 *735:549 0
28 *8608:A *8865:B1 8.45369e-05
29 *8610:A3 *8630:A2 1.47256e-05
30 *8616:A *8630:A2 1.16578e-05
31 *8630:B1 *8630:A2 0.000113797
32 *8703:B1 *617:25 2.67591e-05
33 *8708:A1 *617:25 0.00126701
34 *8709:A1 *617:25 0
35 *8734:A2 *8734:B2 2.97561e-05
36 *8865:A1_N *8865:B1 0.000123574
37 *8956:B1 *617:25 3.76596e-05
38 *8957:B1 *617:25 0.000105426
39 *9002:A2 *8630:A2 5.05437e-05
40 *9002:B1 *8630:A2 1.83756e-05
41 *9003:B1 *8630:A2 8.34323e-05
42 *9060:D *8865:B1 7.10957e-05
43 *9121:D *8962:B1 0.000126338
44 *9144:D *8630:A2 0.000139478
45 *206:8 *8865:B1 0.000100842
46 *206:16 *8865:B1 0.000158594
47 *206:22 *8865:B1 4.60584e-05
48 *286:16 *8630:A2 0.000390466
49 *292:28 *8630:A2 8.0518e-05
50 *352:50 *617:25 0.000139843
51 *352:107 *8734:B2 5.16418e-05
52 *531:38 *617:25 0
53 *531:59 *617:25 6.42143e-05
54 *531:80 *617:25 7.02775e-05
55 *531:97 *8962:B1 0
56 *531:106 *8962:B1 0
57 *571:28 *617:25 4.75576e-05
58 *572:20 *617:25 3.54684e-05
59 *577:26 *8865:B1 6.01006e-05
60 *613:16 *617:25 0
*RES
1 *9121:Q *617:4 1.6 
2 *617:4 *617:8 4.2525 
3 *617:8 *8962:B1 5.965 
4 *617:8 *617:25 33.43 
5 *617:25 *8734:B2 8.39 
6 *617:25 *8865:B1 30.82 
7 *617:4 *8630:A2 30.8625 
*END

*D_NET *618 0.0190079
*CONN
*I *8633:B1 I *D sky130_fd_sc_hd__o221a_1
*I *8867:A1 I *D sky130_fd_sc_hd__mux2_1
*I *8905:B2 I *D sky130_fd_sc_hd__o32a_1
*I *8693:A1 I *D sky130_fd_sc_hd__a221o_1
*I *9063:Q O *D sky130_fd_sc_hd__dfstp_1
*CAP
1 *8633:B1 0.000622072
2 *8867:A1 0.000936872
3 *8905:B2 0
4 *8693:A1 0.0012334
5 *9063:Q 0
6 *618:62 0.00316528
7 *618:14 0.00174957
8 *618:4 0.00212251
9 *8633:B1 *8636:B1 0.00040865
10 *8633:B1 *714:51 0.000243532
11 *8693:A1 *8906:B 0.000142853
12 *8693:A1 *707:78 0.000519749
13 *8867:A1 *8636:B1 0.000171308
14 *8867:A1 *8869:B1 0.000118081
15 *8867:A1 *638:10 5.34608e-05
16 *8867:A1 *638:14 0.000267959
17 *8867:A1 *712:71 0.00021011
18 *8867:A1 *712:97 0.000724587
19 *8867:A1 *712:112 0.000152134
20 *8867:A1 *735:1452 0
21 *8604:A *8633:B1 0.000105266
22 *8619:A1 *8633:B1 0.000178314
23 *8626:A2 *8633:B1 4.91927e-05
24 *8708:A1 *618:14 6.55328e-05
25 *8722:B2 *8693:A1 8.7427e-05
26 *8854:A1 *8867:A1 0
27 *8860:A1 *8867:A1 0
28 *8860:S *8867:A1 3.79555e-05
29 *8865:A1_N *8867:A1 8.80658e-06
30 *8866:A2 *8867:A1 9.82856e-06
31 *8875:A0 *8867:A1 9.87538e-05
32 *8875:A1 *8633:B1 0.000963733
33 *8875:A1 *8867:A1 3.39064e-05
34 *8886:A1 *618:62 0.00014365
35 *8905:A2 *8693:A1 3.96737e-05
36 *8905:A2 *618:14 4.82863e-05
37 *8905:A3 *8693:A1 7.93964e-05
38 *8907:B1 *618:14 4.82863e-05
39 *9055:D *8867:A1 0
40 *9063:D *8693:A1 8.40269e-05
41 *9063:D *618:14 3.96653e-05
42 *9085:D *8693:A1 6.2842e-05
43 *9149:D *8633:B1 2.42236e-05
44 *234:22 *618:62 0.000268973
45 *275:95 *618:14 0.000116853
46 *344:31 *8693:A1 0.000174063
47 *345:23 *8693:A1 0.000171755
48 *480:12 *8867:A1 0.000110134
49 *512:26 *618:14 1.46828e-05
50 *573:6 *618:62 0.00310053
*RES
1 *9063:Q *618:4 1.6 
2 *618:4 *618:14 11.6275 
3 *618:14 *8693:A1 13.9056 
4 *618:14 *8905:B2 1.6 
5 *618:4 *618:62 41.6325 
6 *618:62 *8867:A1 22.9709 
7 *618:62 *8633:B1 21.735 
*END

*D_NET *619 0.0142344
*CONN
*I *8873:A1 I *D sky130_fd_sc_hd__o21a_1
*I *8636:B1 I *D sky130_fd_sc_hd__o221a_1
*I *8907:B2 I *D sky130_fd_sc_hd__o32a_1
*I *8699:A1 I *D sky130_fd_sc_hd__a221o_1
*I *9064:Q O *D sky130_fd_sc_hd__dfstp_1
*CAP
1 *8873:A1 2.97406e-05
2 *8636:B1 0.0010853
3 *8907:B2 2.08101e-05
4 *8699:A1 0.000435392
5 *9064:Q 0
6 *619:56 0.0036462
7 *619:14 0.000879326
8 *619:4 0.00295428
9 *619:14 *9064:SET_B 7.73437e-06
10 *619:14 *735:627 0
11 *619:56 *9057:CLK 0.000132753
12 *619:56 *9064:SET_B 6.03522e-05
13 *619:56 *9168:CLK 0.000119115
14 *619:56 *9183:A 0.000401702
15 *619:56 *624:32 4.66108e-05
16 *619:56 *624:42 8.05167e-05
17 *619:56 *625:10 4.44059e-05
18 *619:56 *707:31 0.000234674
19 *8604:B *8636:B1 0.000133528
20 *8619:B2 *8636:B1 1.15688e-05
21 *8622:A1 *8636:B1 0
22 *8626:A2 *8636:B1 0.000291358
23 *8633:B1 *8636:B1 0.00040865
24 *8633:B2 *8636:B1 0.000136182
25 *8633:C1 *8636:B1 0.000136877
26 *8634:C *8636:B1 0.00018305
27 *8636:A1 *8636:B1 1.15688e-05
28 *8703:B2 *8699:A1 1.79892e-05
29 *8708:A2 *619:14 4.41506e-05
30 *8708:B2 *8699:A1 0.000138995
31 *8708:B2 *8907:B2 0
32 *8708:B2 *619:14 0.000100407
33 *8713:B1 *8699:A1 0.000502432
34 *8733:A2 *8699:A1 1.46744e-05
35 *8733:C1 *8699:A1 4.77757e-05
36 *8854:A1 *8636:B1 0
37 *8854:A1 *619:56 0
38 *8867:A1 *8636:B1 0.000171308
39 *8873:A2 *8873:A1 2.75229e-05
40 *8873:A2 *619:56 0.000182343
41 *8873:B1 *8873:A1 4.35348e-05
42 *8873:B1 *619:56 3.00381e-05
43 *8875:A1 *8636:B1 2.63122e-05
44 *8877:A3 *619:56 2.67275e-05
45 *8883:A1_N *619:56 3.03775e-05
46 *8883:A2_N *619:56 5.92849e-05
47 *8907:A1 *8699:A1 0.000120655
48 *8907:A2 *8699:A1 8.65961e-05
49 *8907:A2 *619:14 1.16578e-05
50 *8907:B1 *619:14 4.66108e-05
51 *9055:D *619:56 0
52 *9057:D *619:56 6.07514e-05
53 *9064:D *8699:A1 6.38722e-05
54 *9064:D *619:14 4.35348e-05
55 *9149:D *8636:B1 0.000119898
56 *9167:D *619:56 0.0001022
57 *282:18 *8636:B1 0
58 *295:23 *8636:B1 0
59 *343:57 *8699:A1 0.000199589
60 *343:63 *8699:A1 0.000100524
61 *572:20 *619:14 6.83538e-05
62 *613:16 *619:14 6.55406e-05
63 *616:54 *8636:B1 0.000189005
*RES
1 *9064:Q *619:4 1.6 
2 *619:4 *619:14 11.6275 
3 *619:14 *8699:A1 16.61 
4 *619:14 *8907:B2 1.96 
5 *619:4 *619:56 39.2125 
6 *619:56 *8636:B1 29.255 
7 *619:56 *8873:A1 2.395 
*END

*D_NET *620 0.013855
*CONN
*I *8988:B1 I *D sky130_fd_sc_hd__o21ai_1
*I *8984:B1_N I *D sky130_fd_sc_hd__a21boi_1
*I *8788:A1 I *D sky130_fd_sc_hd__o22ai_4
*I *8587:C_N I *D sky130_fd_sc_hd__or3b_1
*I *9001:A1 I *D sky130_fd_sc_hd__o211a_1
*I *9000:B_N I *D sky130_fd_sc_hd__or2b_1
*I *8807:C I *D sky130_fd_sc_hd__or3_2
*I *8985:C1 I *D sky130_fd_sc_hd__o311ai_1
*I *8810:C I *D sky130_fd_sc_hd__nand3_2
*I *9165:Q O *D sky130_fd_sc_hd__dfstp_2
*CAP
1 *8988:B1 0
2 *8984:B1_N 1.41956e-05
3 *8788:A1 0
4 *8587:C_N 0
5 *9001:A1 6.85252e-05
6 *9000:B_N 0.00017534
7 *8807:C 0.000105184
8 *8985:C1 3.36736e-05
9 *8810:C 0.000211332
10 *9165:Q 0.00146952
11 *620:98 0.000375625
12 *620:96 0.00103941
13 *620:80 0.0010411
14 *620:72 0.000636331
15 *620:58 0.000756303
16 *620:31 0.000374696
17 *620:29 0.000299226
18 *620:10 0.00191016
19 *8810:C *9132:CLK 8.78735e-05
20 *8810:C *9189:A 0
21 *9000:B_N *9000:A 1.83847e-05
22 *9000:B_N *9134:CLK 0
23 *9000:B_N *707:157 6.10014e-05
24 *9001:A1 *9001:A2 0
25 *9001:A1 *9134:CLK 8.65961e-05
26 *620:10 *8591:A_N 0
27 *620:10 *9132:CLK 7.71016e-05
28 *620:10 *9132:SET_B 0.000116158
29 *620:10 *9165:SET_B 0.000205925
30 *620:10 *9189:A 0
31 *620:10 *721:24 2.20732e-05
32 *620:10 *735:1130 0.000308909
33 *620:10 *735:1340 2.66586e-05
34 *620:29 *8989:A_N 0.000432769
35 *620:58 *761:28 7.23602e-05
36 *620:72 *8590:B1 0.00012411
37 *620:80 *8587:A 0.000154903
38 *620:80 *8993:A2 0.000304688
39 *620:96 *8589:A 0
40 *620:96 *8993:A2 8.52883e-05
41 *620:96 *9001:A2 2.36616e-05
42 *620:96 *9134:CLK 0.000324225
43 *8587:B *620:96 0
44 *8590:C1 *620:96 0
45 *8592:A2 *620:72 2.8185e-05
46 *8788:A2 *620:72 0.000178651
47 *8788:A2 *620:80 2.15271e-05
48 *8788:B1 *620:72 8.40213e-05
49 *8788:B1 *620:80 0
50 *8804:D *620:72 8.09454e-05
51 *8806:B *620:58 2.16833e-05
52 *8807:A *8807:C 0.000124007
53 *8807:B *8807:C 0.000311288
54 *8807:B *620:98 0.000188957
55 *8810:A *8810:C 0
56 *8810:A *620:72 7.23533e-05
57 *8810:B *8810:C 0
58 *8985:A1 *8985:C1 4.41824e-05
59 *8985:A1 *620:58 3.1528e-05
60 *8986:B1 *620:31 6.00111e-05
61 *8986:B1 *620:58 4.82863e-05
62 *8988:A1 *8985:C1 4.9119e-06
63 *8989:B *620:29 3.94429e-05
64 *8989:B *620:31 7.00889e-06
65 *8994:C *620:72 0.000274668
66 *8995:A1 *620:29 0.000124895
67 *9134:D *620:96 0.000142661
68 *9143:D *9000:B_N 0
69 *189:20 *620:58 7.4027e-05
70 *189:20 *620:72 0
71 *195:39 *8807:C 3.95724e-05
72 *270:10 *620:80 8.95933e-05
73 *430:18 *8810:C 5.10022e-05
74 *430:18 *620:72 1.41165e-05
75 *436:33 *8985:C1 0
76 *436:50 *8985:C1 0
77 *436:50 *620:58 0.000120655
78 *441:37 *620:31 5.35071e-05
79 *441:39 *8985:C1 9.85506e-06
80 *441:39 *620:31 4.08514e-05
81 *445:44 *8984:B1_N 1.85674e-05
82 *445:44 *620:58 1.85674e-05
83 *446:18 *620:72 2.35435e-05
84 *446:18 *620:80 0.000202712
85 *446:18 *620:96 5.13692e-05
86 *448:18 *620:96 0.000114492
*RES
1 *9165:Q *620:10 23.4 
2 *620:10 *8810:C 7.245 
3 *620:10 *620:29 7.295 
4 *620:29 *620:31 1.83 
5 *620:31 *8985:C1 2.515 
6 *620:31 *620:58 8.92 
7 *620:58 *620:72 13.615 
8 *620:72 *620:80 5.76 
9 *620:80 *620:96 17.425 
10 *620:96 *620:98 2.175 
11 *620:98 *8807:C 4.825 
12 *620:98 *9000:B_N 8.645 
13 *620:96 *9001:A1 3.1 
14 *620:80 *8587:C_N 1.6 
15 *620:72 *8788:A1 1.6 
16 *620:58 *8984:B1_N 1.96 
17 *620:29 *8988:B1 1.6 
*END

*D_NET *621 0.00796279
*CONN
*I *8501:B I *D sky130_fd_sc_hd__nand2_1
*I *8669:A1 I *D sky130_fd_sc_hd__o21a_1
*I *8668:S I *D sky130_fd_sc_hd__mux2_1
*I *8529:C1 I *D sky130_fd_sc_hd__o311a_1
*I *8530:A I *D sky130_fd_sc_hd__and2_1
*I *8519:B1_N I *D sky130_fd_sc_hd__o21bai_2
*I *8494:A I *D sky130_fd_sc_hd__buf_2
*I *9122:Q O *D sky130_fd_sc_hd__dfrtp_2
*CAP
1 *8501:B 9.96562e-05
2 *8669:A1 0
3 *8668:S 0
4 *8529:C1 0.000338667
5 *8530:A 0
6 *8519:B1_N 4.24117e-05
7 *8494:A 3.76639e-05
8 *9122:Q 0.000686998
9 *621:79 0.000201071
10 *621:53 0.000488062
11 *621:43 0.000357058
12 *621:34 0.00023458
13 *621:23 0.000368602
14 *621:12 0.000922522
15 *8501:B *673:78 0.000405086
16 *8529:C1 *8668:A0 1.83847e-05
17 *8529:C1 *8670:A1 0
18 *8529:C1 *673:31 3.09164e-05
19 *621:12 *9122:RESET_B 5.92112e-05
20 *621:12 *742:10 0.000736451
21 *621:23 *676:14 0
22 *621:23 *742:10 0.000552728
23 *621:34 *8530:B 0.000163448
24 *621:34 *742:10 0.000186746
25 *621:34 *742:20 1.10631e-05
26 *621:43 *8530:B 1.70935e-05
27 *621:43 *8538:B1 0
28 *621:43 *742:20 5.12017e-06
29 *621:53 *742:20 0.000201301
30 *621:79 *8532:B1_N 0
31 *621:79 *673:65 4.82919e-05
32 *621:79 *673:78 5.66359e-05
33 *8498:A2 *621:23 0.00016784
34 *8498:A2 *621:34 2.92496e-05
35 *8532:A1 *8501:B 9.80943e-06
36 *8532:A2 *8501:B 0.000205398
37 *8668:A1 *8529:C1 4.66108e-05
38 *8669:A2 *621:53 0
39 *8669:A2 *621:79 4.99619e-05
40 *8670:B1 *8529:C1 5.05437e-05
41 *8670:C1 *8529:C1 0
42 *8671:A *621:34 6.28843e-05
43 *8671:A *621:43 7.26629e-05
44 *8675:A2 *621:53 0
45 *9091:D *621:12 0
46 *9122:D *621:12 0.000258181
47 *190:36 *8519:B1_N 0.000111455
48 *190:42 *8519:B1_N 4.66108e-05
49 *193:20 *621:12 5.39961e-05
50 *193:20 *621:23 0.000186099
51 *193:65 *8529:C1 8.7974e-05
52 *212:6 *8519:B1_N 8.88715e-05
53 *223:8 *621:43 0
54 *223:8 *621:53 0
55 *223:27 *8501:B 0.000164874
56 *223:27 *621:79 0
*RES
1 *9122:Q *621:12 17.07 
2 *621:12 *8494:A 4.05 
3 *621:12 *621:23 6.48 
4 *621:23 *8519:B1_N 5.085 
5 *621:23 *621:34 3.93 
6 *621:34 *8530:A 3.6 
7 *621:34 *621:43 1.89 
8 *621:43 *621:53 5.405 
9 *621:53 *8529:C1 11.645 
10 *621:53 *8668:S 1.6 
11 *621:43 *621:79 4.205 
12 *621:79 *8669:A1 1.6 
13 *621:79 *8501:B 6.13 
*END

*D_NET *622 0.00199592
*CONN
*I *9001:A2 I *D sky130_fd_sc_hd__o211a_1
*I *8589:A I *D sky130_fd_sc_hd__inv_2
*I *9143:Q O *D sky130_fd_sc_hd__dfrtp_1
*CAP
1 *9001:A2 0.000390462
2 *8589:A 0.000218275
3 *9143:Q 0
4 *622:6 0.000608737
5 *8589:A *8993:A2 0.000238137
6 *8589:A *9030:RESET_B 0
7 *8589:A *735:290 0
8 *8589:A *735:292 0
9 *9001:A2 *9134:CLK 8.82557e-05
10 *9001:A2 *735:290 0
11 *9001:A1 *9001:A2 0
12 *9001:C1 *9001:A2 0.000285731
13 *9134:D *9001:A2 0
14 *446:18 *8589:A 0.000142661
15 *448:18 *8589:A 0
16 *620:96 *8589:A 0
17 *620:96 *9001:A2 2.36616e-05
*RES
1 *9143:Q *622:6 3.6 
2 *622:6 *8589:A 8.43 
3 *622:6 *9001:A2 10.44 
*END

*D_NET *623 0.00666887
*CONN
*I *8506:B I *D sky130_fd_sc_hd__nor4_1
*I *8844:B I *D sky130_fd_sc_hd__nor4_1
*I *8848:A2 I *D sky130_fd_sc_hd__o41a_1
*I *8840:B I *D sky130_fd_sc_hd__nor3_4
*I *8843:A2 I *D sky130_fd_sc_hd__o31a_1
*I *8836:A I *D sky130_fd_sc_hd__or2_1
*I *8835:A I *D sky130_fd_sc_hd__nand2_1
*I *9046:Q O *D sky130_fd_sc_hd__dfrtp_4
*CAP
1 *8506:B 0.000295468
2 *8844:B 0.0001178
3 *8848:A2 9.7059e-05
4 *8840:B 0.000200856
5 *8843:A2 3.9847e-05
6 *8836:A 9.42595e-05
7 *8835:A 4.07375e-05
8 *9046:Q 8.03343e-05
9 *623:81 0.000482197
10 *623:55 0.00045917
11 *623:42 0.000287052
12 *623:38 0.000244914
13 *623:21 0.000270495
14 *623:10 0.000207274
15 *8506:B *8506:A 0.000270653
16 *8836:A *630:14 4.9968e-05
17 *8844:B *8844:A 1.83847e-05
18 *8844:B *630:48 3.64998e-06
19 *623:10 *630:27 7.97066e-05
20 *8835:B *8835:A 5.3444e-05
21 *8835:B *623:21 0.000126584
22 *8836:B *8836:A 0.000122325
23 *8841:B1 *8836:A 0.000257535
24 *8841:B1 *8840:B 4.9968e-05
25 *8841:B1 *623:42 0
26 *8841:B1 *623:55 0
27 *8845:A *623:42 2.68721e-05
28 *8845:B *623:42 7.00225e-05
29 *8845:C *623:38 0.000134471
30 *8845:C *623:81 0.000271314
31 *8846:A2 *8844:B 1.07505e-05
32 *8846:B1 *623:42 9.03429e-05
33 *8848:A4 *623:55 6.9117e-05
34 *8850:A2 *623:10 0.000112196
35 *8850:B1 *8840:B 8.40213e-05
36 *8857:A1 *8506:B 0
37 *8857:A1 *8844:B 0
38 *9048:D *8840:B 1.01661e-05
39 *59:39 *8835:A 8.49205e-05
40 *59:39 *623:21 0.00042453
41 *59:39 *623:38 0.000272978
42 *59:39 *623:81 0.000100738
43 *59:43 *8835:A 0
44 *385:40 *623:21 0.00011964
45 *385:40 *623:38 4.21973e-05
46 *385:61 *623:42 4.57752e-05
47 *385:61 *623:55 1.26626e-05
48 *463:74 *8506:B 6.0665e-05
49 *463:110 *8506:B 0.000226132
50 *463:110 *8844:B 3.83455e-05
51 *463:129 *8844:B 4.82863e-05
52 *464:25 *8840:B 0.000199833
53 *464:25 *8848:A2 0.000163204
*RES
1 *9046:Q *623:10 8 
2 *623:10 *8835:A 2.755 
3 *623:10 *623:21 3.9 
4 *623:21 *8836:A 8.375 
5 *623:21 *623:38 3.135 
6 *623:38 *623:42 4.145 
7 *623:42 *8843:A2 4.05 
8 *623:42 *623:55 4.655 
9 *623:55 *8840:B 9.095 
10 *623:55 *8848:A2 3.085 
11 *623:38 *623:81 4.52 
12 *623:81 *8844:B 5.685 
13 *623:81 *8506:B 11.355 
*END

*D_NET *624 0.00489145
*CONN
*I *8874:A I *D sky130_fd_sc_hd__xnor2_1
*I *8878:C I *D sky130_fd_sc_hd__or4_1
*I *8877:A2 I *D sky130_fd_sc_hd__o31a_1
*I *8882:B I *D sky130_fd_sc_hd__or4_1
*I *8885:A2 I *D sky130_fd_sc_hd__o41a_1
*I *8505:A I *D sky130_fd_sc_hd__or3_1
*I *9056:Q O *D sky130_fd_sc_hd__dfrtp_2
*CAP
1 *8874:A 0
2 *8878:C 0
3 *8877:A2 0
4 *8882:B 0
5 *8885:A2 0
6 *8505:A 7.10501e-05
7 *9056:Q 0.000671376
8 *624:46 0.000150564
9 *624:42 0.000211118
10 *624:32 0.00023015
11 *624:22 0.000240234
12 *624:16 0.000813064
13 *8505:A *8505:B 6.64979e-05
14 *8505:A *8506:D 0.000163985
15 *8505:A *625:10 4.21314e-05
16 *8505:A *627:14 2.27326e-05
17 *624:16 *638:61 0
18 *624:16 *735:1462 0
19 *624:16 *735:1469 0
20 *624:22 *8877:A1 3.83041e-05
21 *624:22 *638:44 2.55503e-05
22 *624:22 *638:61 0.000206497
23 *624:32 *8877:A1 0.000110615
24 *624:32 *8877:B1 6.45236e-05
25 *624:32 *8878:B 7.23533e-05
26 *624:32 *625:49 8.34281e-06
27 *624:42 *625:10 5.83121e-06
28 *624:42 *625:34 4.41506e-05
29 *624:42 *625:49 4.41506e-05
30 *624:42 *626:10 6.10014e-05
31 *624:42 *626:12 4.43871e-06
32 *624:46 *8881:A2 0
33 *624:46 *626:40 8.23457e-05
34 *8857:A1 *624:42 0.000111189
35 *8872:A *624:16 9.55119e-05
36 *8872:C_N *624:16 0.000111285
37 *8872:C_N *624:22 4.66108e-05
38 *8876:A *624:16 0.000200615
39 *8877:A3 *624:32 5.83121e-06
40 *8883:A2_N *624:32 0.000136877
41 *8885:A4 *624:46 0.000119762
42 *9056:D *624:16 1.12578e-05
43 *487:10 *624:22 0.000292106
44 *487:10 *624:32 8.65961e-05
45 *487:10 *624:46 5.39673e-05
46 *487:28 *624:22 4.1709e-05
47 *619:56 *624:32 4.66108e-05
48 *619:56 *624:42 8.05167e-05
*RES
1 *9056:Q *624:16 16.655 
2 *624:16 *624:22 4.365 
3 *624:22 *624:32 7.39 
4 *624:32 *624:42 7.225 
5 *624:42 *624:46 1.845 
6 *624:46 *8505:A 8 
7 *624:46 *8885:A2 1.6 
8 *624:42 *8882:B 1.6 
9 *624:32 *8877:A2 1.6 
10 *624:22 *8878:C 1.6 
11 *624:16 *8874:A 1.6 
*END

*D_NET *625 0.00385105
*CONN
*I *8877:B1 I *D sky130_fd_sc_hd__o31a_1
*I *8878:B I *D sky130_fd_sc_hd__or4_1
*I *8882:A I *D sky130_fd_sc_hd__or4_1
*I *8885:A1 I *D sky130_fd_sc_hd__o41a_1
*I *8506:D I *D sky130_fd_sc_hd__nor4_1
*I *9057:Q O *D sky130_fd_sc_hd__dfrtp_1
*CAP
1 *8877:B1 3.29029e-05
2 *8878:B 3.0307e-05
3 *8882:A 3.97946e-05
4 *8885:A1 1.65033e-05
5 *8506:D 0.000437338
6 *9057:Q 0
7 *625:49 0.000185658
8 *625:34 0.00022554
9 *625:10 0.000602427
10 *625:4 0.000211883
11 *8506:D *8505:B 0
12 *8506:D *8505:C 0.000183738
13 *8506:D *8506:C 7.00889e-06
14 *8882:A *8877:A1 0.000139238
15 *625:10 *8505:C 8.53113e-06
16 *625:10 *626:10 6.21553e-05
17 *625:10 *626:12 6.21553e-05
18 *625:10 *627:14 3.39069e-05
19 *8505:A *8506:D 0.000163985
20 *8505:A *625:10 4.21314e-05
21 *8509:A_N *8506:D 0.000492013
22 *8509:B *8506:D 2.75229e-05
23 *8854:A1 *8877:B1 0
24 *8857:A1 *8506:D 0
25 *8857:A1 *8882:A 0.000137571
26 *8877:A3 *8877:B1 1.0183e-05
27 *8877:A3 *8878:B 2.66935e-05
28 *8877:A3 *625:49 4.66108e-05
29 *8885:A4 *8885:A1 4.66108e-05
30 *463:70 *8506:D 0.000186619
31 *463:74 *8506:D 8.32705e-05
32 *492:14 *8885:A1 2.49909e-05
33 *619:56 *625:10 4.44059e-05
34 *624:32 *8877:B1 6.45236e-05
35 *624:32 *8878:B 7.23533e-05
36 *624:32 *625:49 8.34281e-06
37 *624:42 *625:10 5.83121e-06
38 *624:42 *625:34 4.41506e-05
39 *624:42 *625:49 4.41506e-05
*RES
1 *9057:Q *625:4 1.6 
2 *625:4 *625:10 4.775 
3 *625:10 *8506:D 14.895 
4 *625:10 *8885:A1 4.05 
5 *625:4 *625:34 0.795 
6 *625:34 *8882:A 7.235 
7 *625:34 *625:49 3.485 
8 *625:49 *8878:B 4.47 
9 *625:49 *8877:B1 4.47 
*END

*D_NET *626 0.00272571
*CONN
*I *8885:A3 I *D sky130_fd_sc_hd__o41a_1
*I *8881:A2 I *D sky130_fd_sc_hd__a21oi_1
*I *8882:C I *D sky130_fd_sc_hd__or4_1
*I *8505:C I *D sky130_fd_sc_hd__or3_1
*I *9058:Q O *D sky130_fd_sc_hd__dfrtp_1
*CAP
1 *8885:A3 0
2 *8881:A2 0.000138597
3 *8882:C 9.14604e-05
4 *8505:C 0.000190047
5 *9058:Q 0.000327799
6 *626:40 0.00022782
7 *626:12 0.00031993
8 *626:10 0.000455446
9 *8505:C *8505:B 7.00889e-06
10 *626:10 *627:14 0
11 *8506:D *8505:C 0.000183738
12 *8857:A1 *8505:C 7.25036e-05
13 *8857:A1 *626:10 0
14 *8857:A1 *626:12 2.16389e-05
15 *8873:A2 *626:10 5.36384e-06
16 *8879:A *8505:C 0
17 *8880:B1 *626:10 4.09384e-05
18 *8881:A1 *8881:A2 1.83756e-05
19 *8882:D *8881:A2 0
20 *8883:A1_N *8881:A2 7.16087e-05
21 *8883:A1_N *626:10 2.67022e-05
22 *8885:A4 *8881:A2 4.99619e-05
23 *8885:A4 *626:40 1.46744e-05
24 *8886:B2 *8881:A2 4.99619e-05
25 *487:10 *8882:C 4.82863e-05
26 *492:14 *8881:A2 5.57023e-05
27 *492:14 *8882:C 2.75145e-05
28 *624:42 *626:10 6.10014e-05
29 *624:42 *626:12 4.43871e-06
30 *624:46 *8881:A2 0
31 *624:46 *626:40 8.23457e-05
32 *625:10 *8505:C 8.53113e-06
33 *625:10 *626:10 6.21553e-05
34 *625:10 *626:12 6.21553e-05
*RES
1 *9058:Q *626:10 8.34 
2 *626:10 *626:12 0.87 
3 *626:12 *8505:C 7.59 
4 *626:12 *8882:C 4.845 
5 *626:10 *626:40 3.14 
6 *626:40 *8881:A2 4.96 
7 *626:40 *8885:A3 1.6 
*END

*D_NET *627 0.00178087
*CONN
*I *8885:B1 I *D sky130_fd_sc_hd__o41a_1
*I *8505:B I *D sky130_fd_sc_hd__or3_1
*I *9059:Q O *D sky130_fd_sc_hd__dfrtp_1
*CAP
1 *8885:B1 0
2 *8505:B 0.000189709
3 *9059:Q 0.000305879
4 *627:14 0.000495588
5 *8505:B *745:61 0
6 *627:14 *9057:RESET_B 0
7 *627:14 *735:1602 0
8 *627:14 *745:61 0
9 *8505:A *8505:B 6.64979e-05
10 *8505:A *627:14 2.27326e-05
11 *8505:C *8505:B 7.00889e-06
12 *8506:D *8505:B 0
13 *8879:A *8505:B 2.66935e-05
14 *8883:A1_N *627:14 0.000455072
15 *8883:B2 *627:14 4.82863e-05
16 *9058:D *627:14 0.000116165
17 *463:44 *627:14 1.33293e-05
18 *625:10 *627:14 3.39069e-05
19 *626:10 *627:14 0
*RES
1 *9059:Q *627:14 10.92 
2 *627:14 *8505:B 6.705 
3 *627:14 *8885:B1 3.6 
*END

*D_NET *628 0.0027434
*CONN
*I *8888:A I *D sky130_fd_sc_hd__nor3_1
*I *8513:A2 I *D sky130_fd_sc_hd__o31a_1
*I *8864:A2 I *D sky130_fd_sc_hd__o311a_1
*I *8887:B1 I *D sky130_fd_sc_hd__o21a_1
*I *8891:A1 I *D sky130_fd_sc_hd__o311a_1
*I *9060:Q O *D sky130_fd_sc_hd__dfrtp_1
*CAP
1 *8888:A 5.63575e-05
2 *8513:A2 7.87279e-05
3 *8864:A2 7.99993e-05
4 *8887:B1 7.35621e-05
5 *8891:A1 0.000168709
6 *9060:Q 0
7 *628:25 0.000275161
8 *628:19 0.000200328
9 *628:4 0.000225067
10 *8513:A2 *629:10 0
11 *8864:A2 *8864:A1 0.000151541
12 *8887:B1 *8864:A1 0.00012083
13 *8891:A1 *629:10 0
14 *628:25 *629:10 0
15 *8846:A1 *8891:A1 2.39642e-05
16 *8865:A2_N *8864:A2 0.000122325
17 *8865:B1 *8888:A 9.80943e-06
18 *8865:B1 *8891:A1 0.000139478
19 *8884:A1 *8891:A1 5.56629e-05
20 *8887:A2 *8864:A2 8.73389e-06
21 *9060:D *8891:A1 0.000103192
22 *206:16 *8888:A 8.04449e-05
23 *206:22 *8513:A2 0.000136884
24 *206:22 *8888:A 8.65961e-05
25 *206:22 *628:25 3.09164e-05
26 *385:103 *628:25 0
27 *577:26 *8888:A 0.000230429
28 *577:26 *8891:A1 0.00028468
*RES
1 *9060:Q *628:4 1.6 
2 *628:4 *8891:A1 10.955 
3 *628:4 *628:19 2 
4 *628:19 *628:25 3.995 
5 *628:25 *8887:B1 3.1 
6 *628:25 *8864:A2 3.79 
7 *628:19 *8513:A2 5.235 
8 *628:4 *8888:A 3.775 
*END

*D_NET *629 0.00171666
*CONN
*I *8864:A1 I *D sky130_fd_sc_hd__o311a_1
*I *8891:C1 I *D sky130_fd_sc_hd__o311a_1
*I *8513:A1 I *D sky130_fd_sc_hd__o31a_1
*I *9061:Q O *D sky130_fd_sc_hd__dfrtp_1
*CAP
1 *8864:A1 0.000102034
2 *8891:C1 2.34274e-05
3 *8513:A1 5.74648e-05
4 *9061:Q 5.05352e-05
5 *629:10 0.000320801
6 *629:6 0.000392478
7 *8513:A2 *629:10 0
8 *8846:A1 *8891:C1 2.56866e-05
9 *8846:A1 *629:10 0.000141711
10 *8864:A2 *8864:A1 0.000151541
11 *8884:A1 *8891:C1 0
12 *8884:A1 *629:10 0
13 *8887:A1 *8864:A1 0.000102018
14 *8887:A2 *8864:A1 1.61831e-05
15 *8887:B1 *8864:A1 0.00012083
16 *8890:A2 *629:6 1.83847e-05
17 *8891:A1 *629:10 0
18 *206:22 *8891:C1 0
19 *209:25 *8513:A1 2.7677e-05
20 *210:16 *8513:A1 3.54536e-05
21 *210:16 *8891:C1 5.53249e-06
22 *385:103 *629:10 0
23 *385:118 *8513:A1 0.0001249
24 *628:25 *629:10 0
*RES
1 *9061:Q *629:6 2.395 
2 *629:6 *629:10 5.93 
3 *629:10 *8513:A1 5.355 
4 *629:10 *8891:C1 4.215 
5 *629:6 *8864:A1 4.93 
*END

*D_NET *630 0.00572307
*CONN
*I *8506:A I *D sky130_fd_sc_hd__nor4_1
*I *8843:A1 I *D sky130_fd_sc_hd__o31a_1
*I *8844:A I *D sky130_fd_sc_hd__nor4_1
*I *8848:A1 I *D sky130_fd_sc_hd__o41a_1
*I *8840:A I *D sky130_fd_sc_hd__nor3_4
*I *8841:A1 I *D sky130_fd_sc_hd__a211o_1
*I *9047:Q O *D sky130_fd_sc_hd__dfrtp_4
*CAP
1 *8506:A 0.000561952
2 *8843:A1 1.19549e-05
3 *8844:A 1.14807e-05
4 *8848:A1 7.18815e-05
5 *8840:A 8.18743e-05
6 *8841:A1 6.71283e-05
7 *9047:Q 0
8 *630:48 0.000310096
9 *630:40 0.000421238
10 *630:27 0.000427308
11 *630:14 0.000565962
12 *630:4 0.000897902
13 *8844:A *631:29 3.74161e-05
14 *8848:A1 *8848:A3 0.000112123
15 *8848:A1 *631:44 2.92496e-05
16 *8848:A1 *632:21 5.16348e-05
17 *630:48 *8843:B1 6.43067e-05
18 *630:48 *631:29 4.66108e-05
19 *8506:B *8506:A 0.000270653
20 *8836:A *630:14 4.9968e-05
21 *8841:B1 *630:14 0.000273878
22 *8843:A3 *8843:A1 1.85674e-05
23 *8843:A3 *630:48 9.0336e-05
24 *8844:B *8844:A 1.83847e-05
25 *8844:B *630:48 3.64998e-06
26 *8844:D *630:48 3.74161e-05
27 *8846:A1 *8841:A1 2.03321e-05
28 *8846:A1 *630:14 0
29 *8846:A1 *630:27 0.000155315
30 *8846:A1 *630:40 3.90495e-05
31 *8846:A2 *8843:A1 9.53428e-06
32 *8846:A2 *630:40 0.000261948
33 *8846:A2 *630:48 2.59835e-05
34 *8846:B1 *630:40 0.000124007
35 *8850:A2 *8840:A 0
36 *8850:A2 *630:27 0
37 *8857:A1 *8506:A 5.99926e-05
38 *9048:D *630:40 0.000198939
39 *385:23 *8840:A 5.4256e-05
40 *385:23 *630:27 1.82563e-05
41 *385:90 *630:14 8.69126e-05
42 *461:18 *8841:A1 2.94533e-05
43 *463:74 *8506:A 2.03321e-05
44 *463:129 *630:48 6.07575e-06
45 *623:10 *630:27 7.97066e-05
*RES
1 *9047:Q *630:4 1.6 
2 *630:4 *630:14 11.685 
3 *630:14 *8841:A1 4.665 
4 *630:14 *630:27 3.93 
5 *630:27 *8840:A 5.235 
6 *630:27 *630:40 6.59 
7 *630:40 *630:48 3.69 
8 *630:48 *8848:A1 7.235 
9 *630:48 *8844:A 2.05 
10 *630:40 *8843:A1 1.96 
11 *630:4 *8506:A 14.9 
*END

*D_NET *631 0.00391564
*CONN
*I *8507:B I *D sky130_fd_sc_hd__nor4_4
*I *8844:C I *D sky130_fd_sc_hd__nor4_1
*I *8843:B1 I *D sky130_fd_sc_hd__o31a_1
*I *8848:A3 I *D sky130_fd_sc_hd__o41a_1
*I *8847:B I *D sky130_fd_sc_hd__nor2_1
*I *9048:Q O *D sky130_fd_sc_hd__dfrtp_4
*CAP
1 *8507:B 5.47524e-05
2 *8844:C 0
3 *8843:B1 5.61005e-05
4 *8848:A3 6.60645e-05
5 *8847:B 0.000263337
6 *9048:Q 0
7 *631:44 0.000116019
8 *631:29 0.000417672
9 *631:23 0.000515515
10 *631:6 0.00043241
11 *8507:B *8507:A 4.31106e-05
12 *8847:B *8847:A 5.84828e-05
13 *631:23 *8507:A 7.06865e-05
14 *631:23 *8852:A_N 1.88602e-05
15 *8843:A3 *8843:B1 4.82863e-05
16 *8844:A *631:29 3.74161e-05
17 *8844:D *8843:B1 4.82919e-05
18 *8846:A2 *8843:B1 0.000124007
19 *8846:A2 *631:44 8.53113e-06
20 *8848:A1 *8848:A3 0.000112123
21 *8848:A1 *631:44 2.92496e-05
22 *8848:A4 *8848:A3 4.11194e-05
23 *8848:A4 *631:44 7.21296e-06
24 *8849:A1 *631:23 0
25 *8849:B1 *8848:A3 8.65905e-05
26 *8849:C1 *8507:B 4.9968e-05
27 *8849:C1 *631:23 7.23533e-05
28 *8850:B1 *8848:A3 8.8266e-05
29 *8851:A1 *8847:B 9.70988e-05
30 *8851:A2 *8847:B 8.89751e-05
31 *8851:A2 *631:23 0.000120908
32 *8857:A1 *631:44 0
33 *8857:B1 *8507:B 0.00015639
34 *8857:B1 *8843:B1 0
35 *9051:D *8507:B 0.00015639
36 *9051:D *631:29 0.000275542
37 *385:61 *631:44 1.44259e-05
38 *463:129 *8843:B1 1.34503e-05
39 *463:129 *631:29 8.58339e-06
40 *464:55 *631:23 6.5337e-06
41 *469:10 *8847:B 0
42 *469:10 *631:23 0
43 *630:48 *8843:B1 6.43067e-05
44 *630:48 *631:29 4.66108e-05
*RES
1 *9048:Q *631:6 3.6 
2 *631:6 *8847:B 9.075 
3 *631:6 *631:23 3.675 
4 *631:23 *631:29 7.9 
5 *631:29 *8848:A3 5.775 
6 *631:29 *631:44 2.87 
7 *631:44 *8843:B1 3.445 
8 *631:44 *8844:C 1.6 
9 *631:23 *8507:B 5.7 
*END

*D_NET *632 0.00311319
*CONN
*I *8507:A I *D sky130_fd_sc_hd__nor4_4
*I *8848:B1 I *D sky130_fd_sc_hd__o41a_1
*I *8847:A I *D sky130_fd_sc_hd__nor2_1
*I *9049:Q O *D sky130_fd_sc_hd__dfrtp_1
*CAP
1 *8507:A 0.000271223
2 *8848:B1 0.00032464
3 *8847:A 7.79818e-05
4 *9049:Q 0
5 *632:21 0.00079297
6 *632:4 0.000275088
7 *8847:A *9049:RESET_B 1.85674e-05
8 *632:21 *8852:A_N 0
9 *632:21 *9049:RESET_B 3.86529e-05
10 *8507:B *8507:A 4.31106e-05
11 *8847:B *8847:A 5.84828e-05
12 *8848:A1 *632:21 5.16348e-05
13 *8849:A1 *632:21 2.46007e-05
14 *8849:B1 *8507:A 0.000190633
15 *8849:B1 *8848:B1 0.00046846
16 *8849:C1 *8507:A 8.65905e-05
17 *8850:B1 *8848:B1 0.000162311
18 *8851:A1 *8847:A 0
19 *464:40 *8507:A 9.27255e-06
20 *469:6 *8847:A 4.99619e-05
21 *469:10 *632:21 9.83202e-05
22 *631:23 *8507:A 7.06865e-05
*RES
1 *9049:Q *632:4 1.6 
2 *632:4 *8847:A 3.46 
3 *632:4 *632:21 8.185 
4 *632:21 *8848:B1 7.255 
5 *632:21 *8507:A 9.845 
*END

*D_NET *633 0.00337253
*CONN
*I *8507:D I *D sky130_fd_sc_hd__nor4_4
*I *8852:A_N I *D sky130_fd_sc_hd__and3b_1
*I *8851:B1_N I *D sky130_fd_sc_hd__a21boi_1
*I *9050:Q O *D sky130_fd_sc_hd__dfrtp_1
*CAP
1 *8507:D 0.000132349
2 *8852:A_N 0.000447674
3 *8851:B1_N 0.00038752
4 *9050:Q 0.000136524
5 *633:23 0.000664899
6 *633:8 0.000608921
7 *8507:D *8507:C 0.00024488
8 *8507:D *735:1406 0
9 *8507:D *735:1416 0
10 *8851:B1_N *735:1406 0
11 *8852:A_N *9051:RESET_B 4.70477e-05
12 *8852:A_N *9081:CLK 0.000129858
13 *8852:A_N *721:109 8.7152e-06
14 *633:8 *735:1406 5.83121e-06
15 *633:23 *8507:C 8.53113e-06
16 *633:23 *735:1406 0
17 *8849:A1 *8852:A_N 0
18 *8849:A2 *8852:A_N 0
19 *8849:C1 *8852:A_N 3.54536e-05
20 *8851:A2 *8851:B1_N 0.000203178
21 *8851:A2 *8852:A_N 6.63219e-06
22 *8853:A *8851:B1_N 8.09157e-05
23 *8854:A2 *8507:D 2.05056e-05
24 *8855:A_N *8851:B1_N 0
25 *8855:A_N *633:23 0
26 *9050:D *8851:B1_N 0
27 *9050:D *8852:A_N 5.53549e-06
28 *204:10 *8507:D 4.99619e-05
29 *464:40 *8852:A_N 7.52968e-05
30 *572:20 *8852:A_N 5.34382e-05
31 *631:23 *8852:A_N 1.88602e-05
32 *632:21 *8852:A_N 0
*RES
1 *9050:Q *633:8 5.085 
2 *633:8 *8851:B1_N 10.17 
3 *633:8 *633:23 1.38 
4 *633:23 *8852:A_N 14.5226 
5 *633:23 *8507:D 6.54 
*END

*D_NET *634 0.00200595
*CONN
*I *8855:B I *D sky130_fd_sc_hd__and2b_1
*I *8507:C I *D sky130_fd_sc_hd__nor4_4
*I *9051:Q O *D sky130_fd_sc_hd__dfrtp_1
*CAP
1 *8855:B 0.000173717
2 *8507:C 0.000352223
3 *9051:Q 0
4 *634:4 0.000525939
5 *8507:C *9081:CLK 0.000120562
6 *8507:D *8507:C 0.00024488
7 *8853:A *8855:B 7.89689e-05
8 *8854:A2 *8507:C 5.80512e-05
9 *8854:B1 *8507:C 0
10 *8855:A_N *8507:C 0
11 *8855:A_N *8855:B 4.99619e-05
12 *8856:C1 *8855:B 0
13 *9050:D *8507:C 0.000236651
14 *9051:D *8507:C 4.82863e-05
15 *204:10 *8507:C 0.00010818
16 *633:23 *8507:C 8.53113e-06
*RES
1 *9051:Q *634:4 1.6 
2 *634:4 *8507:C 14.03 
3 *634:4 *8855:B 8.72 
*END

*D_NET *635 0.00352767
*CONN
*I *8862:B I *D sky130_fd_sc_hd__or3_1
*I *8869:A2 I *D sky130_fd_sc_hd__o41a_1
*I *8508:B I *D sky130_fd_sc_hd__nor3_2
*I *8863:A1 I *D sky130_fd_sc_hd__o21ai_1
*I *8859:A I *D sky130_fd_sc_hd__xnor2_1
*I *9052:Q O *D sky130_fd_sc_hd__dfrtp_2
*CAP
1 *8862:B 0
2 *8869:A2 0.000126341
3 *8508:B 1.84214e-05
4 *8863:A1 0.000109396
5 *8859:A 0
6 *9052:Q 0.000331616
7 *635:53 0.000189864
8 *635:14 0.000295373
9 *635:10 0.000647897
10 *635:6 0.000838638
11 *8508:B *9052:CLK 0
12 *8508:B *712:77 5.39673e-05
13 *8863:A1 *638:14 0.000114492
14 *8863:A1 *712:77 0
15 *635:6 *9086:CLK 4.99121e-05
16 *635:10 *9052:RESET_B 6.23204e-05
17 *635:10 *9086:CLK 4.80291e-07
18 *635:14 *712:77 5.88334e-05
19 *8854:A1 *8863:A1 0.000117825
20 *8859:B *8863:A1 7.00889e-06
21 *8863:A2 *8863:A1 1.00714e-05
22 *8864:C1 *8863:A1 7.16048e-06
23 *9052:D *8508:B 5.83121e-06
24 *9052:D *635:10 0.000279044
25 *9086:D *8869:A2 0.000203178
26 *211:12 *8863:A1 0
*RES
1 *9052:Q *635:6 5.5 
2 *635:6 *635:10 5.895 
3 *635:10 *635:14 2.88 
4 *635:14 *8859:A 1.6 
5 *635:14 *8863:A1 8.17625 
6 *635:10 *8508:B 2.41 
7 *635:6 *635:53 4.87 
8 *635:53 *8869:A2 3.43 
9 *635:53 *8862:B 1.6 
*END

*D_NET *636 0.00418901
*CONN
*I *8862:A I *D sky130_fd_sc_hd__or3_1
*I *8869:A1 I *D sky130_fd_sc_hd__o41a_1
*I *8863:B1 I *D sky130_fd_sc_hd__o21ai_1
*I *8508:A I *D sky130_fd_sc_hd__nor3_2
*I *9053:Q O *D sky130_fd_sc_hd__dfrtp_1
*CAP
1 *8862:A 3.38799e-05
2 *8869:A1 0
3 *8863:B1 0.000194544
4 *8508:A 0
5 *9053:Q 6.88886e-05
6 *636:42 0.000557951
7 *636:16 0.000509127
8 *636:8 0.000907543
9 *8862:A *637:29 3.26889e-05
10 *8863:B1 *712:97 3.84331e-05
11 *636:8 *9053:RESET_B 8.65905e-05
12 *636:8 *712:63 4.47209e-05
13 *636:16 *712:63 0.000196802
14 *636:16 *735:1416 7.21296e-06
15 *636:42 *8866:B2 0.000117753
16 *636:42 *9054:RESET_B 0
17 *636:42 *637:29 0.000116165
18 *8860:A0 *8863:B1 2.67022e-05
19 *8860:A1 *8863:B1 1.22676e-05
20 *8860:S *8863:B1 0
21 *8860:S *636:16 0
22 *8860:S *636:42 0
23 *8861:A *8863:B1 0.00010596
24 *8861:A *636:16 0.000256777
25 *8862:C *8862:A 3.70572e-05
26 *8864:C1 *8863:B1 4.9253e-06
27 *8868:A *636:8 2.06762e-05
28 *8868:A *636:42 4.66108e-05
29 *9052:D *636:8 0.000162311
30 *9052:D *636:16 0.00045805
31 *9052:D *636:42 3.66286e-05
32 *9054:D *636:42 2.04748e-05
33 *9086:D *8862:A 8.8266e-05
34 *480:12 *636:42 0
*RES
1 *9053:Q *636:8 3.79 
2 *636:8 *636:16 9.29 
3 *636:16 *8508:A 3.6 
4 *636:16 *8863:B1 7.23 
5 *636:8 *636:42 12.685 
6 *636:42 *8869:A1 1.6 
7 *636:42 *8862:A 2.755 
*END

*D_NET *637 0.00316271
*CONN
*I *8869:A3 I *D sky130_fd_sc_hd__o41a_1
*I *8508:C I *D sky130_fd_sc_hd__nor3_2
*I *8866:B2 I *D sky130_fd_sc_hd__a32o_1
*I *9054:Q O *D sky130_fd_sc_hd__dfrtp_1
*CAP
1 *8869:A3 0
2 *8508:C 0.000164529
3 *8866:B2 0.000512418
4 *9054:Q 0.000267282
5 *637:29 0.000236785
6 *637:8 0.000851956
7 *8508:C *8869:B1 3.00381e-05
8 *8508:C *712:77 0.000120655
9 *8508:C *735:1452 9.06764e-05
10 *8866:B2 *9054:CLK 8.73389e-06
11 *8866:B2 *9054:RESET_B 3.90292e-05
12 *8866:B2 *712:71 1.1392e-05
13 *8866:B2 *735:1452 1.07655e-05
14 *637:29 *8869:B1 0
15 *637:29 *735:1452 3.05807e-05
16 *8862:A *637:29 3.26889e-05
17 *8862:C *8508:C 5.83121e-06
18 *8862:C *637:29 5.92986e-05
19 *8866:A1 *8866:B2 1.37328e-05
20 *8872:B *8508:C 1.1561e-05
21 *9052:D *8508:C 6.83549e-05
22 *9086:D *8508:C 0.000120655
23 *9086:D *637:29 8.65961e-05
24 *204:18 *8866:B2 0
25 *205:12 *8508:C 0.000155234
26 *577:26 *637:29 0
27 *636:42 *8866:B2 0.000117753
28 *636:42 *637:29 0.000116165
*RES
1 *9054:Q *637:8 6.465 
2 *637:8 *8866:B2 10.185 
3 *637:8 *637:29 4.535 
4 *637:29 *8508:C 10.025 
5 *637:29 *8869:A3 1.6 
*END

*D_NET *638 0.00750666
*CONN
*I *8878:A I *D sky130_fd_sc_hd__or4_1
*I *8877:A1 I *D sky130_fd_sc_hd__o31a_1
*I *8871:A I *D sky130_fd_sc_hd__or2_1
*I *8869:B1 I *D sky130_fd_sc_hd__o41a_1
*I *8506:C I *D sky130_fd_sc_hd__nor4_1
*I *9055:Q O *D sky130_fd_sc_hd__dfrtp_1
*CAP
1 *8878:A 0
2 *8877:A1 0.000121655
3 *8871:A 0
4 *8869:B1 0.000226033
5 *8506:C 0.000520994
6 *9055:Q 0.000764709
7 *638:61 0.000203173
8 *638:44 0.000108107
9 *638:14 0.00104171
10 *638:10 0.00108598
11 *8506:D *8506:C 7.00889e-06
12 *8508:C *8869:B1 3.00381e-05
13 *8509:B *8506:C 8.41342e-05
14 *8509:C *8506:C 0.000227898
15 *8854:A1 *638:10 7.81221e-05
16 *8854:A1 *638:14 0.000303063
17 *8857:A1 *8506:C 0
18 *8857:A1 *8877:A1 5.56168e-05
19 *8858:A *8506:C 5.83121e-06
20 *8858:B *8506:C 3.09088e-05
21 *8862:C *8869:B1 0
22 *8863:A1 *638:14 0.000114492
23 *8866:A2 *638:14 2.92496e-05
24 *8867:A0 *8869:B1 0.000119762
25 *8867:A1 *8869:B1 0.000118081
26 *8867:A1 *638:10 5.34608e-05
27 *8867:A1 *638:14 0.000267959
28 *8870:B *8506:C 0.000192125
29 *8870:B *8869:B1 4.66108e-05
30 *8871:B *638:61 8.23457e-05
31 *8878:D *8877:A1 0.00012657
32 *8878:D *638:61 3.66286e-05
33 *8882:A *8877:A1 0.000139238
34 *8883:A2_N *8877:A1 0.000138551
35 *9055:D *638:10 9.02174e-05
36 *9086:D *8869:B1 1.12578e-05
37 *205:12 *8869:B1 0.000405053
38 *211:26 *638:14 4.9968e-05
39 *464:70 *8506:C 1.15688e-05
40 *477:12 *8506:C 0.000120186
41 *487:10 *8877:A1 4.85879e-05
42 *492:14 *8877:A1 7.00889e-06
43 *577:26 *8506:C 2.17931e-05
44 *624:16 *638:61 0
45 *624:22 *8877:A1 3.83041e-05
46 *624:22 *638:44 2.55503e-05
47 *624:22 *638:61 0.000206497
48 *624:32 *8877:A1 0.000110615
49 *637:29 *8869:B1 0
*RES
1 *9055:Q *638:10 12.495 
2 *638:10 *638:14 10.265 
3 *638:14 *8506:C 14.78 
4 *638:14 *8869:B1 6.895 
5 *638:10 *638:44 2.45 
6 *638:44 *8871:A 1.6 
7 *638:44 *638:61 2.625 
8 *638:61 *8877:A1 9.83 
9 *638:61 *8878:A 1.6 
*END

*D_NET *639 0.00120766
*CONN
*I *8510:A I *D sky130_fd_sc_hd__nand2_1
*I *8997:A_N I *D sky130_fd_sc_hd__and2b_1
*I *9141:Q O *D sky130_fd_sc_hd__dfstp_1
*CAP
1 *8510:A 8.93069e-05
2 *8997:A_N 9.66289e-05
3 *9141:Q 0.00012186
4 *639:14 0.000307796
5 *8510:A *745:42 4.66108e-05
6 *8510:A *745:59 3.66415e-05
7 *8997:A_N *642:12 4.66108e-05
8 *639:14 *665:18 0.000100536
9 *8998:S *8510:A 5.83121e-06
10 *8998:S *8997:A_N 0.000113255
11 *208:73 *639:14 5.33085e-05
12 *208:88 *639:14 0.000129735
13 *234:22 *639:14 5.95397e-05
*RES
1 *9141:Q *639:14 8.7275 
2 *639:14 *8997:A_N 3.43 
3 *639:14 *8510:A 3.1 
*END

*D_NET *640 0.00172672
*CONN
*I *8596:B_N I *D sky130_fd_sc_hd__and4bb_1
*I *8598:C I *D sky130_fd_sc_hd__and4bb_1
*I *9142:Q O *D sky130_fd_sc_hd__dfstp_1
*CAP
1 *8596:B_N 0.000191072
2 *8598:C 0.000100422
3 *9142:Q 0.000283842
4 *640:8 0.000575336
5 *8596:B_N *9046:CLK 9.66021e-05
6 *8596:B_N *666:14 0.000112105
7 *8598:C *8598:B_N 5.05437e-05
8 *8598:C *666:14 6.10014e-05
9 *8598:C *720:71 0
10 *640:8 *9137:RESET_B 0.000111909
11 *640:8 *735:1165 7.28241e-05
12 *640:8 *735:1169 2.30292e-05
13 *8598:A_N *8596:B_N 0
14 *8598:A_N *8598:C 0
15 *9142:D *8596:B_N 0
16 *237:71 *8598:C 4.80285e-05
*RES
1 *9142:Q *640:8 7.3275 
2 *640:8 *8598:C 5.775 
3 *640:8 *8596:B_N 7.485 
*END

*D_NET *641 0.00373883
*CONN
*I *8993:A2 I *D sky130_fd_sc_hd__a21oi_1
*I *9176:Q O *D sky130_fd_sc_hd__dfrtp_1
*CAP
1 *8993:A2 0.000733448
2 *9176:Q 0.000733448
3 *8993:A2 *8587:A 0.00028085
4 *8993:A2 *742:79 5.53249e-06
5 *8589:A *8993:A2 0.000238137
6 *8590:C1 *8993:A2 0.000235339
7 *8592:A1 *8993:A2 0.000161529
8 *8592:A2 *8993:A2 0.000133498
9 *8993:A1 *8993:A2 4.30228e-05
10 *8993:B1 *8993:A2 0.000423931
11 *188:10 *8993:A2 0.000107415
12 *195:39 *8993:A2 0.000132261
13 *270:10 *8993:A2 9.44548e-05
14 *446:18 *8993:A2 2.59926e-05
15 *620:80 *8993:A2 0.000304688
16 *620:96 *8993:A2 8.52883e-05
*RES
1 *9176:Q *8993:A2 26.97 
*END

*D_NET *642 0.0138998
*CONN
*I *8966:A0 I *D sky130_fd_sc_hd__mux2_1
*I *9023:A1 I *D sky130_fd_sc_hd__o211a_1
*I *8998:A0 I *D sky130_fd_sc_hd__mux2_1
*I *9135:Q O *D sky130_fd_sc_hd__dfxtp_1
*CAP
1 *8966:A0 0.000952326
2 *9023:A1 0.000742935
3 *8998:A0 0
4 *9135:Q 0.000264012
5 *642:33 0.00385321
6 *642:12 0.00242196
7 *8966:A0 *700:8 6.24871e-05
8 *8966:A0 *742:37 0.00130498
9 *9023:A1 *8523:A2 7.23533e-05
10 *9023:A1 *8950:B2 4.49498e-05
11 *9023:A1 *9022:A1 0.000160651
12 *9023:A1 *704:10 0
13 *9023:A1 *706:18 0
14 *9023:A1 *735:358 0
15 *9023:A1 *735:369 0
16 *642:12 *8998:A1 2.16917e-05
17 *642:12 *665:18 0.000135532
18 *642:33 *8933:A1 7.10578e-05
19 *642:33 *8947:B2 8.43946e-05
20 *642:33 *8948:C1 6.04396e-05
21 *642:33 *8998:A1 1.08758e-05
22 *642:33 *723:33 0.000485718
23 *642:33 *763:26 0.00022626
24 *8682:A *642:33 2.05665e-05
25 *8713:B1 *642:33 0.000101093
26 *8807:A *9023:A1 0
27 *8947:B1 *642:33 0.000595497
28 *8948:B1 *642:33 0
29 *8952:A1 *9023:A1 0
30 *8997:A_N *642:12 4.66108e-05
31 *8998:S *642:12 2.8185e-05
32 *8999:A *642:33 0.000361546
33 *9022:A2 *9023:A1 6.57201e-05
34 *9023:A2 *9023:A1 8.8266e-05
35 *9173:D *9023:A1 8.65961e-05
36 *198:10 *9023:A1 0
37 *208:23 *8966:A0 0
38 *275:106 *642:12 0.00024756
39 *337:12 *642:33 0.000425498
40 *339:10 *642:33 0.000106861
41 *352:107 *642:33 0.000233004
42 *505:56 *642:33 5.6361e-05
43 *579:52 *9023:A1 0.000443151
44 *579:52 *642:33 1.74629e-05
*RES
1 *9135:Q *642:12 10.685 
2 *642:12 *8998:A0 1.6 
3 *642:12 *642:33 41.2925 
4 *642:33 *9023:A1 19.6725 
5 *642:33 *8966:A0 7.6529 
*END

*D_NET *643 0.00112
*CONN
*I *8740:A I *D sky130_fd_sc_hd__nor2_1
*I *9113:Q O *D sky130_fd_sc_hd__dfxtp_1
*CAP
1 *8740:A 0.000404228
2 *9113:Q 0.000404228
3 *8740:A *8591:A_N 0
4 *8740:A *8739:A 3.59997e-05
5 *8740:A *735:1165 0
6 *8740:A *745:14 0.000275542
*RES
1 *9113:Q *8740:A 12.48 
*END

*D_NET *644 0.0217103
*CONN
*I *8608:B I *D sky130_fd_sc_hd__and2_1
*I *8657:C I *D sky130_fd_sc_hd__and3_1
*I *8733:B2 I *D sky130_fd_sc_hd__a221o_1
*I *8512:C1 I *D sky130_fd_sc_hd__o211a_1
*I *8894:C I *D sky130_fd_sc_hd__and4bb_2
*I *8931:A3 I *D sky130_fd_sc_hd__a32o_1
*I *9078:Q O *D sky130_fd_sc_hd__dfrtp_4
*CAP
1 *8608:B 0.000780487
2 *8657:C 0
3 *8733:B2 0.000393159
4 *8512:C1 0.000789754
5 *8894:C 9.7832e-05
6 *8931:A3 0.000272317
7 *9078:Q 0
8 *644:90 0.00189352
9 *644:45 0.00102594
10 *644:39 0.00154041
11 *644:37 0.00307065
12 *644:4 0.00122104
13 *8608:B *8654:A 4.35432e-05
14 *8608:B *9003:A1 0.000160635
15 *8733:B2 *8906:B 4.01535e-05
16 *8894:C *8894:A_N 1.08758e-05
17 *8894:C *8894:B_N 4.11718e-05
18 *8931:A3 *8914:B 6.68963e-05
19 *8931:A3 *8931:B1 1.94636e-05
20 *644:45 *8894:B_N 9.53428e-06
21 *644:90 *9005:A1 0
22 *644:90 *9121:CLK 4.82919e-05
23 *8512:B1 *8512:C1 3.04064e-05
24 *8547:A *8931:A3 0
25 *8608:A *8512:C1 2.16917e-05
26 *8630:A2 *644:90 7.03141e-05
27 *8654:B *8608:B 4.99619e-05
28 *8657:B *8608:B 8.61123e-05
29 *8657:B *644:90 2.4981e-05
30 *8658:A *8608:B 4.65641e-05
31 *8693:A2 *8733:B2 3.1835e-05
32 *8697:A3 *644:45 0.00031513
33 *8697:B2 *8733:B2 0.000148963
34 *8703:A1 *8512:C1 4.82919e-05
35 *8703:A2 *8512:C1 3.06947e-05
36 *8703:B1 *8512:C1 8.57024e-05
37 *8703:B2 *8512:C1 8.23457e-05
38 *8705:A1 *644:37 1.7635e-05
39 *8705:A1 *644:39 0.000255222
40 *8716:A1 *644:37 9.22294e-06
41 *8717:A1 *644:39 0.000333903
42 *8721:A1 *644:39 0
43 *8728:A2 *8733:B2 2.61795e-05
44 *8728:A3 *644:39 0
45 *8733:A2 *8733:B2 1.20741e-05
46 *8734:A1 *8512:C1 0.000134314
47 *8734:B2 *8512:C1 0.000233004
48 *8865:B1 *8512:C1 0.00139901
49 *8914:A *8931:A3 0.000122337
50 *8914:A *644:37 4.85494e-05
51 *8917:A3 *644:39 0
52 *8955:A3 *8733:B2 5.39961e-05
53 *8959:B1 *644:39 0.000374933
54 *8960:A1 *644:37 2.33708e-05
55 *8960:A2 *644:37 0.000123592
56 *8960:A3 *644:37 4.21973e-05
57 *8960:B2 *644:37 0.000315678
58 *8962:A2 *644:90 4.66108e-05
59 *8962:B1 *644:90 0.000204136
60 *9003:B1 *8608:B 5.61451e-05
61 *9005:B1 *8608:B 0.000246772
62 *9005:B1 *644:90 0
63 *9121:D *644:90 6.68173e-06
64 *234:22 *8608:B 0
65 *234:22 *644:90 1.51046e-05
66 *234:28 *644:90 1.83847e-05
67 *234:34 *644:37 6.97713e-05
68 *234:46 *8931:A3 8.33292e-05
69 *291:10 *8608:B 0
70 *292:28 *8608:B 0.000155274
71 *292:38 *8608:B 0.000120765
72 *319:8 *8608:B 4.66108e-05
73 *319:23 *8608:B 7.19937e-05
74 *319:25 *8608:B 9.60115e-05
75 *343:53 *644:39 0.000167659
76 *343:55 *644:39 2.34423e-05
77 *343:57 *644:39 0.000235657
78 *343:57 *644:45 3.29364e-05
79 *343:63 *644:45 2.23407e-05
80 *344:10 *8733:B2 4.43871e-06
81 *344:27 *8733:B2 7.83575e-05
82 *345:12 *644:45 0.000227527
83 *345:23 *644:39 0.000847094
84 *345:23 *644:45 0.000206328
85 *352:62 *8733:B2 0
86 *352:73 *8733:B2 0
87 *352:79 *8512:C1 4.66826e-05
88 *509:27 *644:37 0.000161529
89 *509:45 *644:37 0.000315678
90 *509:54 *644:90 0.000230429
91 *512:12 *644:39 0
92 *512:48 *644:39 0
93 *517:6 *644:37 0.000138799
94 *521:88 *8931:A3 0.000183036
95 *531:106 *644:90 4.08514e-05
96 *577:26 *8512:C1 0.000434322
97 *608:35 *8608:B 0.000312769
98 *615:45 *644:39 0.000299076
99 *617:8 *644:90 0.000339918
*RES
1 *9078:Q *644:4 1.6 
2 *644:4 *8931:A3 11.405 
3 *644:4 *644:37 13.0205 
4 *644:37 *644:39 24.585 
5 *644:39 *644:45 7.31 
6 *644:45 *8894:C 3.1 
7 *644:45 *8512:C1 22.42 
8 *644:39 *8733:B2 13.5737 
9 *644:37 *644:90 18.395 
10 *644:90 *8657:C 1.6 
11 *644:90 *8608:B 20.9 
*END

*D_NET *645 0.00385685
*CONN
*I *9003:A1 I *D sky130_fd_sc_hd__a21o_1
*I *8749:A1 I *D sky130_fd_sc_hd__a211o_1
*I *9004:A1 I *D sky130_fd_sc_hd__a21o_1
*I *8748:A1 I *D sky130_fd_sc_hd__o21a_1
*I *9144:Q O *D sky130_fd_sc_hd__dfstp_1
*CAP
1 *9003:A1 0.000186684
2 *8749:A1 9.00565e-05
3 *9004:A1 0
4 *8748:A1 0.000237202
5 *9144:Q 5.08366e-05
6 *645:12 0.000277958
7 *645:10 0.00019086
8 *645:8 0.000297567
9 *8748:A1 *8748:A2 0.000278306
10 *8748:A1 *8748:B1 0.000122337
11 *8748:A1 *9184:A 0.000113221
12 *8748:A1 *647:20 0.000141092
13 *8748:A1 *707:35 0.000172946
14 *8748:A1 *714:29 1.08758e-05
15 *8749:A1 *9184:A 6.00027e-05
16 *9003:A1 *735:562 4.75576e-05
17 *9003:A1 *735:564 4.44896e-05
18 *645:10 *735:564 5.84456e-05
19 *645:12 *9184:A 2.14129e-05
20 *645:12 *735:564 2.15594e-05
21 *8608:A *8748:A1 0.000278203
22 *8608:A *645:10 8.53113e-06
23 *8608:A *645:12 7.23533e-05
24 *8608:B *9003:A1 0.000160635
25 *8617:B1 *8748:A1 0.000197796
26 *8749:C1 *8749:A1 0.000123225
27 *9002:B1 *9003:A1 0
28 *9002:B1 *645:10 0
29 *9003:B1 *645:8 2.58386e-05
30 *9007:B1 *645:10 1.65192e-05
31 *237:107 *8749:A1 8.49205e-05
32 *292:28 *9003:A1 0.000156697
33 *614:56 *8749:A1 0.000308724
*RES
1 *9144:Q *645:8 4.2225 
2 *645:8 *645:10 1.38 
3 *645:10 *645:12 0.87 
4 *645:12 *8748:A1 11.625 
5 *645:12 *9004:A1 3.6 
6 *645:10 *8749:A1 6.825 
7 *645:8 *9003:A1 7.23 
*END

*D_NET *646 0.0041289
*CONN
*I *9006:A1 I *D sky130_fd_sc_hd__a21o_1
*I *8748:B1 I *D sky130_fd_sc_hd__o21a_1
*I *9005:A1 I *D sky130_fd_sc_hd__a21o_1
*I *9145:Q O *D sky130_fd_sc_hd__dfstp_1
*CAP
1 *9006:A1 7.61292e-05
2 *8748:B1 0.000101617
3 *9005:A1 0.000575677
4 *9145:Q 0
5 *646:33 0.000336445
6 *646:4 0.000734375
7 *9005:A1 *647:20 2.59981e-05
8 *646:33 *9185:A 2.05056e-05
9 *8617:B1 *8748:B1 0.000124007
10 *8658:A *9005:A1 0.000201503
11 *8748:A1 *8748:B1 0.000122337
12 *8749:B1 *9005:A1 0.000195165
13 *9003:B1 *9005:A1 0.00013521
14 *9004:A2 *646:33 2.8185e-05
15 *9005:A2 *9005:A1 8.65905e-05
16 *9005:B1 *9005:A1 0.000140142
17 *9007:B1 *9005:A1 0.000212568
18 *9007:B1 *646:33 0.000176324
19 *237:95 *8748:B1 8.03611e-05
20 *237:95 *9006:A1 7.40395e-05
21 *237:121 *9006:A1 4.43871e-06
22 *292:38 *9005:A1 8.65961e-05
23 *292:49 *9005:A1 5.8718e-05
24 *292:74 *9005:A1 1.02692e-05
25 *319:27 *9006:A1 4.44131e-05
26 *319:33 *8748:B1 7.8486e-05
27 *319:33 *9006:A1 3.82549e-05
28 *610:21 *9005:A1 0.000360543
29 *644:90 *9005:A1 0
*RES
1 *9145:Q *646:4 1.6 
2 *646:4 *9005:A1 18.2375 
3 *646:4 *646:33 4.6925 
4 *646:33 *8748:B1 6.63 
5 *646:33 *9006:A1 5.49 
*END

*D_NET *647 0.00396442
*CONN
*I *8748:A2 I *D sky130_fd_sc_hd__o21a_1
*I *8749:A2 I *D sky130_fd_sc_hd__a211o_1
*I *9007:A1 I *D sky130_fd_sc_hd__a21o_1
*I *9146:Q O *D sky130_fd_sc_hd__dfstp_1
*CAP
1 *8748:A2 0.000104172
2 *8749:A2 0
3 *9007:A1 0.000211854
4 *9146:Q 0
5 *647:20 0.000584304
6 *647:4 0.000476622
7 *9007:A1 *9184:A 0.000534304
8 *9007:A1 *713:8 0.000234685
9 *9007:A1 *713:10 0.000154816
10 *647:20 *9146:SET_B 5.8023e-05
11 *647:20 *9184:A 0.000230435
12 *647:20 *707:35 5.62512e-05
13 *647:20 *735:564 8.24798e-05
14 *8617:B1 *647:20 0.000101273
15 *8748:A1 *8748:A2 0.000278306
16 *8748:A1 *647:20 0.000141092
17 *8749:B1 *8748:A2 0.000140595
18 *8749:B1 *647:20 0.000250872
19 *9005:A1 *647:20 2.59981e-05
20 *292:49 *647:20 5.16348e-05
21 *610:21 *647:20 0.000128354
22 *614:56 *9007:A1 0.000118352
*RES
1 *9146:Q *647:4 1.6 
2 *647:4 *647:20 16.3025 
3 *647:20 *9007:A1 12.425 
4 *647:20 *8749:A2 1.6 
5 *647:4 *8748:A2 4.2925 
*END

*D_NET *648 0.00366637
*CONN
*I *8746:A1 I *D sky130_fd_sc_hd__o21a_1
*I *9009:A1 I *D sky130_fd_sc_hd__a21o_1
*I *9010:A1 I *D sky130_fd_sc_hd__a21o_1
*I *8747:A1 I *D sky130_fd_sc_hd__a211o_1
*I *9166:Q O *D sky130_fd_sc_hd__dfstp_1
*CAP
1 *8746:A1 8.3573e-05
2 *9009:A1 0.000261925
3 *9010:A1 1.36534e-05
4 *8747:A1 0.00030046
5 *9166:Q 0
6 *648:25 0.000436072
7 *648:19 0.000268872
8 *648:4 0.000325265
9 *8746:A1 *8746:A2 9.14035e-05
10 *8746:A1 *8746:B1 4.82919e-05
11 *8747:A1 *8746:A2 0.000115685
12 *8747:A1 *650:18 0
13 *9009:A1 *649:27 7.30547e-05
14 *9010:A1 *9167:CLK 4.66108e-05
15 *648:19 *8746:A2 4.09723e-05
16 *648:25 *8746:B1 0.0002014
17 *648:25 *649:27 0.00010596
18 *9008:A2 *648:25 9.15582e-05
19 *9009:A2 *9009:A1 4.82863e-05
20 *9009:B1 *8747:A1 0
21 *9009:B1 *9009:A1 0.000130453
22 *9010:A2 *9010:A1 4.66108e-05
23 *9011:B1 *648:25 0.000116151
24 *9012:A2 *9009:A1 0.000418498
25 *237:71 *8747:A1 4.18603e-06
26 *319:33 *9009:A1 7.40446e-05
27 *319:46 *9009:A1 0.000121094
28 *319:46 *648:25 1.52184e-05
29 *610:21 *8747:A1 0.000187071
*RES
1 *9166:Q *648:4 1.6 
2 *648:4 *8747:A1 11.1275 
3 *648:4 *648:19 0.6225 
4 *648:19 *648:25 6.035 
5 *648:25 *9010:A1 4.05 
6 *648:25 *9009:A1 10.845 
7 *648:19 *8746:A1 3.43 
*END

*D_NET *649 0.00290088
*CONN
*I *9011:A1 I *D sky130_fd_sc_hd__a21o_1
*I *8746:B1 I *D sky130_fd_sc_hd__o21a_1
*I *9012:A1 I *D sky130_fd_sc_hd__a21o_1
*I *9167:Q O *D sky130_fd_sc_hd__dfstp_1
*CAP
1 *9011:A1 0
2 *8746:B1 0.00011835
3 *9012:A1 0.000450892
4 *9167:Q 0
5 *649:27 0.000355565
6 *649:4 0.000688107
7 *8746:B1 *712:25 0.000132883
8 *9012:A1 *9167:CLK 0.000248661
9 *9012:A1 *665:10 0.000116853
10 *649:27 *9059:CLK 0
11 *649:27 *9167:CLK 0.000112537
12 *649:27 *712:25 7.36562e-05
13 *8746:A1 *8746:B1 4.82919e-05
14 *9008:A2 *8746:B1 1.73877e-05
15 *9009:A1 *649:27 7.30547e-05
16 *9009:A2 *9012:A1 2.49909e-05
17 *9009:B1 *9012:A1 0
18 *9012:A2 *9012:A1 2.42599e-05
19 *9166:D *9012:A1 7.4027e-05
20 *292:80 *9012:A1 3.39981e-05
21 *648:25 *8746:B1 0.0002014
22 *648:25 *649:27 0.00010596
*RES
1 *9167:Q *649:4 1.6 
2 *649:4 *9012:A1 12.5525 
3 *649:4 *649:27 6.1475 
4 *649:27 *8746:B1 6.96 
5 *649:27 *9011:A1 3.6 
*END

*D_NET *650 0.00312913
*CONN
*I *8746:A2 I *D sky130_fd_sc_hd__o21a_1
*I *8747:A2 I *D sky130_fd_sc_hd__a211o_1
*I *9013:A1 I *D sky130_fd_sc_hd__a21o_1
*I *9168:Q O *D sky130_fd_sc_hd__dfstp_1
*CAP
1 *8746:A2 0.000321325
2 *8747:A2 1.90984e-05
3 *9013:A1 0.00024734
4 *9168:Q 8.90542e-05
5 *650:18 0.000496131
6 *650:10 0.000640073
7 *9013:A1 *707:31 0.000347023
8 *9013:A1 *711:78 0.000125257
9 *650:10 *707:35 4.9968e-05
10 *8746:A1 *8746:A2 9.14035e-05
11 *8747:A1 *8746:A2 0.000115685
12 *8747:A1 *650:18 0
13 *8747:B1 *8747:A2 4.00541e-06
14 *8747:B1 *650:18 2.16833e-05
15 *9008:A2 *650:18 0
16 *9009:B1 *650:10 0.000132842
17 *9009:B1 *650:18 0.000185405
18 *9011:A2 *650:10 3.51596e-05
19 *9140:D *9013:A1 1.03323e-05
20 *9167:D *650:10 6.48692e-05
21 *234:22 *9013:A1 3.59997e-05
22 *237:78 *650:18 4.82919e-05
23 *275:106 *9013:A1 7.21296e-06
24 *610:21 *650:10 0
25 *610:21 *650:18 0
26 *648:19 *8746:A2 4.09723e-05
*RES
1 *9168:Q *650:10 5.8575 
2 *650:10 *650:18 6.335 
3 *650:18 *9013:A1 10.625 
4 *650:18 *8747:A2 1.96 
5 *650:10 *8746:A2 7.5 
*END

*D_NET *651 0.00594068
*CONN
*I *8612:B I *D sky130_fd_sc_hd__and2_1
*I *8623:B I *D sky130_fd_sc_hd__or4_2
*I *8620:B I *D sky130_fd_sc_hd__nor4_1
*I *8621:A2 I *D sky130_fd_sc_hd__o31a_1
*I *8625:A2 I *D sky130_fd_sc_hd__o41a_1
*I *8600:B I *D sky130_fd_sc_hd__nor3_2
*I *8618:A2 I *D sky130_fd_sc_hd__o21a_1
*I *8611:B I *D sky130_fd_sc_hd__nor2_1
*I *8609:A I *D sky130_fd_sc_hd__inv_2
*I *9147:Q O *D sky130_fd_sc_hd__dfrtp_4
*CAP
1 *8612:B 4.67717e-05
2 *8623:B 0.000121863
3 *8620:B 0.000109691
4 *8621:A2 0
5 *8625:A2 0.000244517
6 *8600:B 3.55506e-05
7 *8618:A2 0
8 *8611:B 0
9 *8609:A 2.56183e-05
10 *9147:Q 0
11 *651:71 0.000149109
12 *651:56 0.000283934
13 *651:54 0.000229319
14 *651:43 0.000380527
15 *651:28 0.000586084
16 *651:19 0.000365312
17 *651:10 0.000105334
18 *651:4 0.000109738
19 *8600:B *8621:A1 0
20 *8600:B *656:81 0
21 *8612:B *8612:A 2.75145e-05
22 *8620:B *8620:C 4.66108e-05
23 *8620:B *9153:CLK 0.000159964
24 *8620:B *657:49 6.81237e-05
25 *8623:B *8623:D 1.47347e-05
26 *8623:B *657:27 8.23457e-05
27 *8623:B *657:36 1.33285e-05
28 *8625:A2 *8625:A1 0.000112123
29 *8625:A2 *8625:A3 0.000346058
30 *8625:A2 *9151:CLK 0.00011379
31 *8625:A2 *9153:CLK 0.000177561
32 *651:10 *8612:A 7.03492e-05
33 *651:28 *8612:A 1.83847e-05
34 *651:28 *656:35 7.67345e-05
35 *651:43 *656:72 5.83121e-06
36 *651:43 *656:81 5.63701e-05
37 *651:54 *8600:C 0.000157172
38 *651:54 *656:81 1.34594e-05
39 *651:54 *657:36 8.4467e-05
40 *651:71 *9153:CLK 7.23602e-05
41 *651:71 *657:49 1.71013e-05
42 *8604:C *8620:B 1.91597e-05
43 *8617:A1 *8609:A 4.80285e-05
44 *8617:A1 *651:19 2.16917e-05
45 *8617:A1 *651:28 2.8585e-06
46 *8619:A2 *651:28 9.27326e-05
47 *8619:A2 *651:43 0.000136526
48 *8622:A2 *651:43 0.000158965
49 *8622:A2 *651:54 0.000145515
50 *8622:C1 *8612:B 3.23663e-05
51 *8860:A1 *8625:A2 0.000146779
52 *8875:A1 *8620:B 9.3062e-06
53 *8875:A1 *8625:A2 6.31717e-05
54 *8875:A1 *651:71 1.14559e-05
55 *8883:B2 *651:10 7.19937e-05
56 *9150:D *8625:A2 9.07847e-05
57 *292:142 *8612:B 0.000131372
58 *295:8 *8620:B 5.83121e-06
59 *614:56 *8609:A 4.80285e-05
60 *614:56 *651:19 5.83121e-06
61 *614:56 *651:28 3.26889e-05
62 *614:60 *651:43 9.17274e-05
63 *616:54 *651:43 4.61196e-05
*RES
1 *9147:Q *651:4 1.6 
2 *651:4 *651:10 5.635 
3 *651:10 *8609:A 2.395 
4 *651:10 *651:19 0.45 
5 *651:19 *8611:B 1.6 
6 *651:19 *651:28 4.77 
7 *651:28 *8618:A2 1.6 
8 *651:28 *651:43 8.44 
9 *651:43 *8600:B 2.215 
10 *651:43 *651:54 2.88 
11 *651:54 *651:56 2 
12 *651:56 *8625:A2 11.91 
13 *651:56 *651:71 0.87 
14 *651:71 *8621:A2 3.6 
15 *651:71 *8620:B 6.285 
16 *651:54 *8623:B 3.085 
17 *651:4 *8612:B 3.1 
*END

*D_NET *652 0.00581567
*CONN
*I *8606:B I *D sky130_fd_sc_hd__nor2_1
*I *8644:A I *D sky130_fd_sc_hd__nor2_1
*I *8651:A2 I *D sky130_fd_sc_hd__o31a_1
*I *8646:B1 I *D sky130_fd_sc_hd__o31a_1
*I *8648:A2 I *D sky130_fd_sc_hd__o31a_1
*I *9157:Q O *D sky130_fd_sc_hd__dfrtp_1
*CAP
1 *8606:B 0
2 *8644:A 0.000221093
3 *8651:A2 0.000176671
4 *8646:B1 0
5 *8648:A2 0.000218786
6 *9157:Q 0.000141328
7 *652:58 0.000616687
8 *652:52 0.000808353
9 *652:10 0.000395261
10 *652:8 0.000907233
11 *8644:A *8652:B_N 6.8803e-06
12 *8648:A2 *8605:A 6.65262e-05
13 *8648:A2 *8605:B 8.52137e-06
14 *8648:A2 *8648:B1 4.21973e-05
15 *8651:A2 *653:21 0.00011529
16 *8651:A2 *654:16 0.000130885
17 *8651:A2 *714:116 1.01276e-05
18 *652:8 *714:158 6.05513e-05
19 *652:10 *8605:A 2.23407e-05
20 *652:52 *8606:A 4.66108e-05
21 *652:52 *9156:CLK 6.10941e-05
22 *652:52 *9157:RESET_B 6.52819e-05
23 *652:52 *664:8 0
24 *652:52 *714:158 0.000200156
25 *652:52 *745:61 0
26 *652:58 *8606:A 2.84137e-05
27 *652:58 *654:10 0.000103583
28 *652:58 *654:16 7.9642e-06
29 *652:58 *714:116 2.75794e-05
30 *8637:B *652:8 4.82919e-05
31 *8637:B *652:10 0
32 *8637:B *652:52 0
33 *8642:A2 *652:10 6.28843e-05
34 *8644:B *8644:A 5.60615e-05
35 *8644:B *8651:A2 4.61196e-05
36 *8647:A1 *652:10 7.33703e-05
37 *8647:A2 *652:10 2.16389e-05
38 *8648:A3 *8648:A2 0.000201508
39 *8652:C *8648:A2 6.05917e-05
40 *8652:C *652:10 4.05023e-05
41 *8653:A1 *8644:A 4.66108e-05
42 *8653:A2 *8644:A 0.000122957
43 *8653:B2 *8644:A 0.000148389
44 *8653:C1 *8644:A 8.63908e-05
45 *9156:D *652:10 0
46 *9156:D *652:52 0
47 *9157:D *652:52 8.53113e-06
48 *9159:D *652:58 9.17261e-05
49 *282:18 *8648:A2 0
50 *283:6 *8648:A2 4.85494e-05
51 *284:8 *652:58 9.61052e-05
52 *313:8 *8648:A2 5.43722e-05
53 *313:19 *8648:A2 1.16578e-05
54 *609:58 *8651:A2 0
*RES
1 *9157:Q *652:8 5.43 
2 *652:8 *652:10 3.675 
3 *652:10 *8648:A2 8.835 
4 *652:10 *8646:B1 3.6 
5 *652:8 *652:52 15.12 
6 *652:52 *652:58 6.98 
7 *652:58 *8651:A2 6.735 
8 *652:58 *8644:A 8.7 
9 *652:52 *8606:B 1.6 
*END

*D_NET *653 0.00352936
*CONN
*I *8606:A I *D sky130_fd_sc_hd__nor2_1
*I *8648:B1 I *D sky130_fd_sc_hd__o31a_1
*I *8651:A1 I *D sky130_fd_sc_hd__o31a_1
*I *9158:Q O *D sky130_fd_sc_hd__dfrtp_1
*CAP
1 *8606:A 0.000188142
2 *8648:B1 0.000186203
3 *8651:A1 1.73505e-05
4 *9158:Q 9.95348e-05
5 *653:21 0.000512451
6 *653:6 0.000254991
7 *8606:A *745:61 0.000500253
8 *8648:B1 *8605:B 0
9 *8648:B1 *745:61 0.000176647
10 *8651:A1 *8607:A_N 4.00541e-06
11 *653:6 *8607:A_N 7.00889e-06
12 *653:21 *8607:A_N 4.94747e-05
13 *653:21 *654:16 5.05437e-05
14 *8642:B1 *653:21 2.17931e-05
15 *8642:C1 *653:21 5.83121e-06
16 *8648:A2 *8648:B1 4.21973e-05
17 *8649:B1 *8648:B1 4.81931e-05
18 *8651:A2 *653:21 0.00011529
19 *283:14 *8648:B1 0.000339321
20 *284:8 *8606:A 0.000268613
21 *284:10 *8606:A 0.000164251
22 *284:10 *8648:B1 0.000180675
23 *313:8 *8648:B1 4.00541e-06
24 *313:19 *8648:B1 4.66108e-05
25 *609:58 *653:6 0.000170953
26 *652:52 *8606:A 4.66108e-05
27 *652:58 *8606:A 2.84137e-05
*RES
1 *9158:Q *653:6 3.775 
2 *653:6 *8651:A1 1.96 
3 *653:6 *653:21 4.985 
4 *653:21 *8648:B1 9.315 
5 *653:21 *8606:A 10.02 
*END

*D_NET *654 0.00198586
*CONN
*I *8652:B_N I *D sky130_fd_sc_hd__and4bb_1
*I *8651:B1 I *D sky130_fd_sc_hd__o31a_1
*I *8607:A_N I *D sky130_fd_sc_hd__nand3b_4
*I *9159:Q O *D sky130_fd_sc_hd__dfrtp_1
*CAP
1 *8652:B_N 6.26776e-06
2 *8651:B1 0
3 *8607:A_N 0.000196606
4 *9159:Q 7.90657e-05
5 *654:16 0.00029875
6 *654:10 0.000187477
7 *8607:A_N *714:116 0.000113797
8 *654:10 *9159:RESET_B 4.66108e-05
9 *8642:B1 *8607:A_N 0
10 *8642:B1 *654:16 4.82919e-05
11 *8642:C1 *8607:A_N 0
12 *8644:A *8652:B_N 6.8803e-06
13 *8644:B *654:16 2.37234e-05
14 *8649:A1 *8607:A_N 5.83121e-06
15 *8649:B1 *8607:A_N 1.19928e-05
16 *8651:A1 *8607:A_N 4.00541e-06
17 *8651:A2 *654:16 0.000130885
18 *8652:D *8652:B_N 1.93609e-05
19 *8889:A *8607:A_N 0.000141365
20 *284:8 *654:10 8.30109e-05
21 *284:10 *654:10 2.98807e-05
22 *284:10 *654:16 0.000197246
23 *311:10 *8607:A_N 4.82919e-05
24 *311:10 *654:16 1.88604e-05
25 *606:52 *8607:A_N 6.90876e-05
26 *652:58 *654:10 0.000103583
27 *652:58 *654:16 7.9642e-06
28 *653:6 *8607:A_N 7.00889e-06
29 *653:21 *8607:A_N 4.94747e-05
30 *653:21 *654:16 5.05437e-05
*RES
1 *9159:Q *654:10 5.43 
2 *654:10 *654:16 5.195 
3 *654:16 *8607:A_N 10.325 
4 *654:16 *8651:B1 1.6 
5 *654:10 *8652:B_N 3.825 
*END

*D_NET *655 0.00440526
*CONN
*I *8613:A I *D sky130_fd_sc_hd__or2_1
*I *8630:A1 I *D sky130_fd_sc_hd__o311a_1
*I *8610:A1 I *D sky130_fd_sc_hd__o311a_1
*I *8650:A1 I *D sky130_fd_sc_hd__o311a_1
*I *8655:B I *D sky130_fd_sc_hd__nand2_1
*I *8654:A I *D sky130_fd_sc_hd__nor2_2
*I *9160:Q O *D sky130_fd_sc_hd__dfrtp_2
*CAP
1 *8613:A 0.00026881
2 *8630:A1 3.95962e-05
3 *8610:A1 0.000193608
4 *8650:A1 2.89361e-05
5 *8655:B 0
6 *8654:A 0.000130515
7 *9160:Q 0.00025084
8 *655:47 0.000378986
9 *655:43 0.00072321
10 *655:34 0.000368669
11 *655:10 0.000197635
12 *655:6 0.000349074
13 *655:47 *714:116 0.000105833
14 *8608:B *8654:A 4.35432e-05
15 *8610:A3 *8610:A1 4.99619e-05
16 *8614:A *8654:A 0
17 *8630:A2 *8610:A1 6.02202e-05
18 *8630:B1 *8610:A1 1.44259e-05
19 *8630:C1 *8630:A1 0
20 *8650:A3 *8650:A1 1.85674e-05
21 *8650:B1 *8610:A1 0
22 *8650:B1 *655:47 0
23 *8654:B *8654:A 1.16578e-05
24 *8656:A2 *8654:A 2.4997e-05
25 *8657:B *8654:A 9.98831e-05
26 *8889:A *8610:A1 0
27 *8889:A *655:47 3.18137e-05
28 *9002:A1 *8654:A 0
29 *9002:A1 *655:10 0
30 *285:25 *8613:A 0.00027416
31 *285:25 *655:43 0.000388784
32 *286:10 *8610:A1 0
33 *286:16 *8610:A1 4.82863e-05
34 *605:66 *8613:A 8.22234e-06
35 *605:66 *655:6 0.000116438
36 *605:66 *655:34 1.4399e-05
37 *605:66 *655:43 2.04648e-05
38 *608:35 *8654:A 8.08439e-05
39 *608:35 *655:10 6.28765e-05
*RES
1 *9160:Q *655:6 4.81 
2 *655:6 *655:10 3.38 
3 *655:10 *8654:A 7.005 
4 *655:10 *8655:B 3.6 
5 *655:6 *655:34 0.45 
6 *655:34 *8650:A1 2.215 
7 *655:34 *655:43 4.245 
8 *655:43 *655:47 5.165 
9 *655:47 *8610:A1 6.9 
10 *655:47 *8630:A1 4.215 
11 *655:43 *8613:A 5.17 
*END

*D_NET *656 0.00621029
*CONN
*I *8623:A I *D sky130_fd_sc_hd__or4_2
*I *8620:A I *D sky130_fd_sc_hd__nor4_1
*I *8621:A1 I *D sky130_fd_sc_hd__o31a_1
*I *8600:A I *D sky130_fd_sc_hd__nor3_2
*I *8618:A1 I *D sky130_fd_sc_hd__o21a_1
*I *8611:A I *D sky130_fd_sc_hd__nor2_1
*I *8612:A I *D sky130_fd_sc_hd__and2_1
*I *8625:A1 I *D sky130_fd_sc_hd__o41a_1
*I *9148:Q O *D sky130_fd_sc_hd__dfrtp_4
*CAP
1 *8623:A 0.000104652
2 *8620:A 3.56948e-05
3 *8621:A1 2.08101e-05
4 *8600:A 0
5 *8618:A1 2.27504e-05
6 *8611:A 0
7 *8612:A 0.000154454
8 *8625:A1 0.000604573
9 *9148:Q 1.67709e-05
10 *656:90 0.000240934
11 *656:81 0.000357865
12 *656:72 0.000401144
13 *656:57 0.000216264
14 *656:35 0.000372632
15 *656:27 0.00049455
16 *656:6 0.000868878
17 *8620:A *8620:C 0.000118527
18 *8620:A *735:1514 6.55406e-05
19 *8621:A1 *8623:D 0
20 *8623:A *8623:D 3.83041e-05
21 *8625:A1 *8625:A3 4.80285e-05
22 *8625:A1 *8625:A4 1.61831e-05
23 *8625:A1 *8625:B1 0.000118081
24 *8625:A1 *714:36 9.29176e-05
25 *8625:A1 *714:51 1.61387e-05
26 *656:6 *714:36 4.82863e-05
27 *656:35 *8618:B1 3.00381e-05
28 *656:57 *8618:B1 8.53113e-06
29 *656:72 *8618:B1 0.000190127
30 *656:81 *8600:C 8.49936e-05
31 *656:81 *657:36 2.75229e-05
32 *656:90 *8623:D 1.16578e-05
33 *656:90 *657:27 2.03356e-05
34 *656:90 *657:36 3.96653e-05
35 *8600:B *8621:A1 0
36 *8600:B *656:81 0
37 *8612:B *8612:A 2.75145e-05
38 *8617:A1 *8612:A 5.83121e-06
39 *8617:A2 *8612:A 4.19967e-05
40 *8617:A2 *656:27 0
41 *8617:A2 *656:57 0
42 *8619:A2 *8618:A1 4.66108e-05
43 *8619:A2 *656:35 7.10201e-05
44 *8619:B1 *656:35 0
45 *8622:A1 *656:27 2.92838e-05
46 *8622:A1 *656:72 1.16597e-05
47 *8622:A2 *656:27 7.23533e-05
48 *8622:A2 *656:57 5.23362e-05
49 *8622:A2 *656:72 0.000145227
50 *8622:C1 *8612:A 4.99619e-05
51 *8624:B *8623:A 1.85674e-05
52 *8625:A2 *8625:A1 0.000112123
53 *8854:A1 *656:27 0
54 *8857:A1 *8612:A 0
55 *8857:A1 *656:27 0
56 *8860:A1 *8625:A1 0.00011379
57 *8883:B2 *8612:A 0
58 *9149:D *8625:A1 1.83847e-05
59 *278:8 *656:81 4.66108e-05
60 *293:138 *656:72 1.01152e-05
61 *297:10 *8623:A 4.99619e-05
62 *614:56 *656:72 0.00015896
63 *651:10 *8612:A 7.03492e-05
64 *651:28 *8612:A 1.83847e-05
65 *651:28 *656:35 7.67345e-05
66 *651:43 *656:72 5.83121e-06
67 *651:43 *656:81 5.63701e-05
68 *651:54 *656:81 1.34594e-05
*RES
1 *9148:Q *656:6 2.05 
2 *656:6 *8625:A1 14.36 
3 *656:6 *656:27 5.675 
4 *656:27 *656:35 5.93 
5 *656:35 *8612:A 8.645 
6 *656:35 *8611:A 1.6 
7 *656:27 *656:57 0.615 
8 *656:57 *8618:A1 4.05 
9 *656:57 *656:72 6.23 
10 *656:72 *8600:A 1.6 
11 *656:72 *656:81 3.915 
12 *656:81 *8621:A1 1.96 
13 *656:81 *656:90 1.485 
14 *656:90 *8620:A 6.98 
15 *656:90 *8623:A 3.445 
*END

*D_NET *657 0.00547327
*CONN
*I *8623:D I *D sky130_fd_sc_hd__or4_2
*I *8620:D I *D sky130_fd_sc_hd__nor4_1
*I *8618:B1 I *D sky130_fd_sc_hd__o21a_1
*I *8600:C I *D sky130_fd_sc_hd__nor3_2
*I *8621:A3 I *D sky130_fd_sc_hd__o31a_1
*I *8625:A4 I *D sky130_fd_sc_hd__o41a_1
*I *9149:Q O *D sky130_fd_sc_hd__dfrtp_2
*CAP
1 *8623:D 3.47162e-05
2 *8620:D 1.14807e-05
3 *8618:B1 0.000413269
4 *8600:C 4.77437e-05
5 *8621:A3 0
6 *8625:A4 0.000208721
7 *9149:Q 0.000202375
8 *657:49 0.000482596
9 *657:36 0.000150146
10 *657:27 7.34604e-05
11 *657:25 0.000252186
12 *657:8 0.000599661
13 *8625:A4 *8625:A3 0.000244198
14 *8625:A4 *8625:B1 5.92884e-05
15 *8625:A4 *735:1481 0
16 *657:8 *9149:RESET_B 4.24575e-05
17 *657:25 *8625:A3 0.000468854
18 *657:25 *8625:B1 0.000132721
19 *657:25 *658:23 9.14049e-05
20 *657:25 *735:1491 0
21 *657:25 *735:1503 0
22 *657:25 *735:1514 0.00010052
23 *8604:C *8618:B1 0.000140018
24 *8604:C *8620:D 1.83847e-05
25 *8604:D *8618:B1 8.94048e-05
26 *8617:A2 *8618:B1 0
27 *8619:A2 *8618:B1 4.82863e-05
28 *8620:B *657:49 6.81237e-05
29 *8621:A1 *8623:D 0
30 *8622:A1 *8618:B1 0
31 *8623:A *8623:D 3.83041e-05
32 *8623:B *8623:D 1.47347e-05
33 *8623:B *657:27 8.23457e-05
34 *8623:B *657:36 1.33285e-05
35 *8625:A1 *8625:A4 1.61831e-05
36 *8630:C1 *8618:B1 4.16454e-05
37 *8875:A1 *657:49 0.000158297
38 *295:8 *8618:B1 0.000419386
39 *295:8 *8620:D 3.74161e-05
40 *295:23 *8618:B1 0
41 *651:54 *8600:C 0.000157172
42 *651:54 *657:36 8.4467e-05
43 *651:71 *657:49 1.71013e-05
44 *656:35 *8618:B1 3.00381e-05
45 *656:57 *8618:B1 8.53113e-06
46 *656:72 *8618:B1 0.000190127
47 *656:81 *8600:C 8.49936e-05
48 *656:81 *657:36 2.75229e-05
49 *656:90 *8623:D 1.16578e-05
50 *656:90 *657:27 2.03356e-05
51 *656:90 *657:36 3.96653e-05
*RES
1 *9149:Q *657:8 5.775 
2 *657:8 *8625:A4 7.335 
3 *657:8 *657:25 8.48 
4 *657:25 *657:27 0.795 
5 *657:27 *8621:A3 1.6 
6 *657:27 *657:36 1.5 
7 *657:36 *8600:C 3.085 
8 *657:36 *657:49 5.89 
9 *657:49 *8618:B1 15.26 
10 *657:49 *8620:D 2.05 
11 *657:25 *8623:D 2.665 
*END

*D_NET *658 0.00431033
*CONN
*I *8602:A I *D sky130_fd_sc_hd__inv_2
*I *8623:C I *D sky130_fd_sc_hd__or4_2
*I *8620:C I *D sky130_fd_sc_hd__nor4_1
*I *8621:B1 I *D sky130_fd_sc_hd__o31a_1
*I *8625:A3 I *D sky130_fd_sc_hd__o41a_1
*I *9150:Q O *D sky130_fd_sc_hd__dfrtp_2
*CAP
1 *8602:A 0.000184886
2 *8623:C 0
3 *8620:C 0.00013823
4 *8621:B1 0
5 *8625:A3 0.000176688
6 *9150:Q 0.000272594
7 *658:47 0.000242311
8 *658:23 0.000196677
9 *658:10 0.00038167
10 *658:6 0.000476555
11 *8602:A *659:27 0
12 *8602:A *659:40 0
13 *8602:A *659:61 0
14 *8602:A *660:27 0
15 *8602:A *735:1503 0
16 *8602:A *735:1514 2.33678e-05
17 *8620:C *9153:CLK 0.000172575
18 *8620:C *735:1514 2.30836e-05
19 *8625:A3 *9151:CLK 0.00011379
20 *8625:A3 *9153:CLK 0.000123242
21 *658:23 *9153:CLK 0.000126679
22 *658:23 *735:1514 1.94723e-05
23 *658:47 *659:27 0
24 *658:47 *735:1514 0.00011852
25 *8604:C *8620:C 8.40269e-05
26 *8620:A *8620:C 0.000118527
27 *8620:B *8620:C 4.66108e-05
28 *8625:A1 *8625:A3 4.80285e-05
29 *8625:A2 *8625:A3 0.000346058
30 *8625:A4 *8625:A3 0.000244198
31 *8626:A1 *658:47 0
32 *8629:A *8602:A 0
33 *8860:A1 *8625:A3 1.12803e-05
34 *297:10 *8602:A 6.10014e-05
35 *657:25 *8625:A3 0.000468854
36 *657:25 *658:23 9.14049e-05
*RES
1 *9150:Q *658:6 4.465 
2 *658:6 *658:10 3.485 
3 *658:10 *8625:A3 11.64 
4 *658:10 *658:23 1.635 
5 *658:23 *8621:B1 3.6 
6 *658:23 *8620:C 6.99 
7 *658:6 *658:47 3.38 
8 *658:47 *8623:C 3.6 
9 *658:47 *8602:A 6.54 
*END

*D_NET *659 0.00589085
*CONN
*I *8601:B I *D sky130_fd_sc_hd__nor2_1
*I *8627:B I *D sky130_fd_sc_hd__or3_1
*I *8632:A2 I *D sky130_fd_sc_hd__o31a_1
*I *8635:A2 I *D sky130_fd_sc_hd__o41a_1
*I *8628:A1 I *D sky130_fd_sc_hd__o21ai_1
*I *8624:A I *D sky130_fd_sc_hd__nor2_1
*I *8625:B1 I *D sky130_fd_sc_hd__o41a_1
*I *9151:Q O *D sky130_fd_sc_hd__dfrtp_4
*CAP
1 *8601:B 2.20365e-05
2 *8627:B 0
3 *8632:A2 3.58449e-05
4 *8635:A2 0.000131073
5 *8628:A1 0.00025203
6 *8624:A 3.37454e-05
7 *8625:B1 0.000351569
8 *9151:Q 0.000277003
9 *659:80 5.36202e-05
10 *659:65 0.000232517
11 *659:61 0.000343155
12 *659:40 0.000604957
13 *659:27 0.000368711
14 *659:6 0.000848061
15 *8601:B *8601:A 4.66108e-05
16 *8625:B1 *9151:RESET_B 4.70477e-05
17 *8625:B1 *735:1481 6.02202e-05
18 *8625:B1 *735:1491 0.000113745
19 *8632:A2 *8632:A1 9.47454e-05
20 *8635:A2 *8601:A 4.9253e-06
21 *8635:A2 *8635:A1 1.5874e-05
22 *8635:A2 *8635:A3 0
23 *8635:A2 *8635:B1 0
24 *659:27 *735:1491 0
25 *659:65 *8601:A 5.81739e-05
26 *659:80 *8635:A3 0
27 *8602:A *659:27 0
28 *8602:A *659:40 0
29 *8602:A *659:61 0
30 *8604:C *8628:A1 2.93674e-05
31 *8625:A1 *8625:B1 0.000118081
32 *8625:A4 *8625:B1 5.92884e-05
33 *8626:A1 *8625:B1 6.3014e-05
34 *8626:A1 *659:27 0.000249921
35 *8627:C *8635:A2 4.31465e-05
36 *8628:A2 *8628:A1 4.66108e-05
37 *8629:A *659:61 0.000153883
38 *8629:B *8628:A1 0.000171845
39 *8630:C1 *8628:A1 2.8585e-06
40 *8630:C1 *659:61 2.65814e-06
41 *8632:A3 *8635:A2 7.00889e-06
42 *8639:A3 *8632:A2 5.17961e-05
43 *9083:D *8625:B1 0.000274805
44 *9083:D *8632:A2 0
45 *9083:D *659:27 0
46 *9083:D *659:40 0
47 *9083:D *659:61 0.000381029
48 *300:10 *8632:A2 2.05571e-05
49 *300:10 *659:65 8.65905e-05
50 *657:25 *8625:B1 0.000132721
51 *658:47 *659:27 0
*RES
1 *9151:Q *659:6 5.5 
2 *659:6 *8625:B1 14.675 
3 *659:6 *659:27 6.44 
4 *659:27 *8624:A 4.05 
5 *659:27 *659:40 3.635 
6 *659:40 *8628:A1 5.545 
7 *659:40 *659:61 9.925 
8 *659:61 *659:65 2.1 
9 *659:65 *8635:A2 3.91 
10 *659:65 *659:80 0.36 
11 *659:80 *8632:A2 6.725 
12 *659:80 *8627:B 1.6 
13 *659:61 *8601:B 2.05 
*END

*D_NET *660 0.00457646
*CONN
*I *8627:A I *D sky130_fd_sc_hd__or3_1
*I *8601:A I *D sky130_fd_sc_hd__nor2_1
*I *8632:A1 I *D sky130_fd_sc_hd__o31a_1
*I *8635:A1 I *D sky130_fd_sc_hd__o41a_1
*I *8628:B1 I *D sky130_fd_sc_hd__o21ai_1
*I *9152:Q O *D sky130_fd_sc_hd__dfrtp_1
*CAP
1 *8627:A 0
2 *8601:A 0.000113066
3 *8632:A1 8.69112e-05
4 *8635:A1 7.74514e-05
5 *8628:B1 1.27348e-05
6 *9152:Q 0.000958636
7 *660:55 0.000147192
8 *660:42 0.00023797
9 *660:27 0.00037794
10 *660:14 0.00115493
11 *8601:A *8603:A 3.13354e-05
12 *8632:A1 *735:1530 0.000193564
13 *8635:A1 *735:1530 0.000109786
14 *660:42 *735:1530 0.000113821
15 *8601:B *8601:A 4.66108e-05
16 *8602:A *660:27 0
17 *8627:C *8601:A 2.41125e-05
18 *8627:C *8635:A1 1.5874e-05
19 *8629:A *8632:A1 0
20 *8629:A *660:27 0
21 *8629:A *660:42 1.86112e-05
22 *8632:A2 *8632:A1 9.47454e-05
23 *8635:A2 *8601:A 4.9253e-06
24 *8635:A2 *8635:A1 1.5874e-05
25 *8883:B2 *660:14 0
26 *9083:D *8632:A1 0
27 *9153:D *8635:A1 9.03291e-05
28 *279:18 *8601:A 0.000231594
29 *279:18 *660:27 1.31732e-05
30 *279:18 *660:42 0.000101276
31 *281:24 *660:14 4.37631e-05
32 *297:10 *8628:B1 7.9642e-06
33 *297:21 *8628:B1 1.7635e-05
34 *297:21 *8635:A1 1.74162e-05
35 *297:21 *660:27 6.25436e-05
36 *297:42 *8635:A1 4.18603e-06
37 *616:54 *660:14 9.23155e-05
38 *659:65 *8601:A 5.81739e-05
*RES
1 *9152:Q *660:14 6.4437 
2 *660:14 *8628:B1 3.8325 
3 *660:14 *660:27 2.94 
4 *660:27 *8635:A1 5.5575 
5 *660:27 *660:42 2.5575 
6 *660:42 *8632:A1 6 
7 *660:42 *660:55 2.45 
8 *660:55 *8601:A 4.84 
9 *660:55 *8627:A 1.6 
*END

*D_NET *661 0.00264426
*CONN
*I *8639:A2 I *D sky130_fd_sc_hd__o31a_1
*I *8635:A3 I *D sky130_fd_sc_hd__o41a_1
*I *8632:B1 I *D sky130_fd_sc_hd__o31a_1
*I *8603:A I *D sky130_fd_sc_hd__inv_2
*I *9153:Q O *D sky130_fd_sc_hd__dfrtp_1
*CAP
1 *8639:A2 0
2 *8635:A3 0.000102587
3 *8632:B1 0
4 *8603:A 0.000127154
5 *9153:Q 6.97809e-05
6 *661:38 0.000402968
7 *661:25 0.000723746
8 *661:8 0.000620301
9 *8635:A3 *8635:B1 0.000178241
10 *8635:A3 *735:1530 0
11 *661:38 *8639:B1 8.09753e-05
12 *661:38 *662:43 5.61379e-05
13 *661:38 *662:53 5.4155e-06
14 *8601:A *8603:A 3.13354e-05
15 *8627:C *8635:A3 1.83847e-05
16 *8632:A3 *8635:A3 9.02717e-05
17 *8632:A3 *661:38 7.10957e-05
18 *8633:A2 *661:38 1.34594e-05
19 *8635:A2 *8635:A3 0
20 *8639:A3 *661:38 1.62814e-05
21 *9083:D *661:25 0
22 *9153:D *8635:A3 7.67415e-06
23 *281:24 *661:8 1.89439e-05
24 *297:42 *8635:A3 9.50342e-06
25 *659:80 *8635:A3 0
*RES
1 *9153:Q *661:8 4.725 
2 *661:8 *8603:A 5.445 
3 *661:8 *661:25 8.21 
4 *661:25 *8632:B1 1.6 
5 *661:25 *661:38 4.545 
6 *661:38 *8635:A3 8.39 
7 *661:38 *8639:A2 1.6 
*END

*D_NET *662 0.00709188
*CONN
*I *8639:A1 I *D sky130_fd_sc_hd__o31a_1
*I *8637:A I *D sky130_fd_sc_hd__or2_1
*I *8641:A1 I *D sky130_fd_sc_hd__o31a_1
*I *8643:A I *D sky130_fd_sc_hd__or4_1
*I *8646:A2 I *D sky130_fd_sc_hd__o31a_1
*I *8605:A I *D sky130_fd_sc_hd__nor4_2
*I *8634:A_N I *D sky130_fd_sc_hd__and4b_1
*I *8635:B1 I *D sky130_fd_sc_hd__o41a_1
*I *9154:Q O *D sky130_fd_sc_hd__dfrtp_4
*CAP
1 *8639:A1 0
2 *8637:A 0.000121998
3 *8641:A1 4.54416e-05
4 *8643:A 0
5 *8646:A2 0
6 *8605:A 0.000132112
7 *8634:A_N 0.000140705
8 *8635:B1 0.000194964
9 *9154:Q 0.00059964
10 *662:103 0.00024857
11 *662:76 0.000300534
12 *662:70 0.000186232
13 *662:66 0.000166396
14 *662:53 0.000604545
15 *662:43 0.000454311
16 *662:18 0.000852531
17 *8635:B1 *8639:B1 0
18 *8635:B1 *735:1530 0
19 *8637:A *664:8 0.000128095
20 *8637:A *664:10 3.59531e-06
21 *8637:A *714:158 2.49909e-05
22 *8641:A1 *663:22 4.66108e-05
23 *662:18 *8639:B1 2.16104e-05
24 *662:18 *9083:CLK 0.000152938
25 *662:18 *735:1530 0
26 *662:43 *8639:B1 8.66107e-06
27 *662:53 *8605:B 1.12578e-05
28 *662:53 *8645:A 2.75145e-05
29 *662:53 *8645:B 2.75229e-05
30 *662:66 *663:30 0.00013521
31 *662:66 *664:14 7.17811e-05
32 *662:70 *8643:B 1.19928e-05
33 *662:70 *8643:C 1.08758e-05
34 *662:76 *8643:C 6.51782e-05
35 *662:103 *663:26 0.000134509
36 *662:103 *663:30 4.31106e-05
37 *662:103 *664:10 6.32403e-05
38 *662:103 *664:14 4.20983e-05
39 *8627:C *8635:B1 5.4155e-06
40 *8633:A2 *8635:B1 0.000128197
41 *8633:A2 *662:43 6.07575e-06
42 *8633:A2 *662:53 4.66108e-05
43 *8633:C1 *662:53 3.57349e-05
44 *8635:A2 *8635:B1 0
45 *8635:A3 *8635:B1 0.000178241
46 *8636:A1 *662:43 0
47 *8636:A1 *662:53 6.98728e-05
48 *8637:B *8637:A 4.75031e-05
49 *8637:B *662:103 1.01152e-05
50 *8639:A3 *662:53 0
51 *8640:A1 *8635:B1 0
52 *8640:B2 *8635:B1 1.17036e-05
53 *8640:B2 *662:18 2.01256e-05
54 *8641:A3 *8641:A1 1.91597e-05
55 *8642:A1 *8605:A 4.75576e-05
56 *8642:A2 *662:76 0.000158965
57 *8646:A3 *662:76 0
58 *8648:A2 *8605:A 6.65262e-05
59 *8648:A3 *8634:A_N 1.0183e-05
60 *8648:A3 *662:53 0.000123225
61 *8648:A3 *662:66 1.73877e-05
62 *8652:C *8634:A_N 0.0001249
63 *8652:C *662:66 5.98004e-06
64 *8883:B2 *8605:A 2.0117e-05
65 *9083:D *662:18 1.71013e-05
66 *9153:D *8635:B1 3.00381e-05
67 *9156:D *8605:A 4.43871e-06
68 *282:18 *8634:A_N 0.000155227
69 *282:22 *662:66 1.26548e-05
70 *282:26 *662:76 5.64111e-05
71 *293:101 *662:53 0.000239807
72 *311:10 *662:70 1.91597e-05
73 *311:10 *662:76 1.91597e-05
74 *313:8 *662:53 4.60584e-05
75 *605:66 *662:53 0.00017556
76 *652:10 *8605:A 2.23407e-05
77 *661:38 *662:43 5.61379e-05
78 *661:38 *662:53 5.4155e-06
*RES
1 *9154:Q *662:18 16.3825 
2 *662:18 *8635:B1 7.6425 
3 *662:18 *662:43 3.4025 
4 *662:43 *662:53 10.775 
5 *662:53 *8634:A_N 6.63 
6 *662:53 *662:66 2.145 
7 *662:66 *662:70 2.45 
8 *662:70 *662:76 3.24 
9 *662:76 *8605:A 8.555 
10 *662:76 *8646:A2 1.6 
11 *662:70 *8643:A 1.6 
12 *662:66 *662:103 2.4 
13 *662:103 *8641:A1 4.395 
14 *662:103 *8637:A 6.24 
15 *662:43 *8639:A1 1.6 
*END

*D_NET *663 0.00486952
*CONN
*I *8639:B1 I *D sky130_fd_sc_hd__o31a_1
*I *8638:A I *D sky130_fd_sc_hd__nor2_1
*I *8641:A2 I *D sky130_fd_sc_hd__o31a_1
*I *8643:C I *D sky130_fd_sc_hd__or4_1
*I *8645:B I *D sky130_fd_sc_hd__or2_1
*I *8605:C I *D sky130_fd_sc_hd__nor4_2
*I *9155:Q O *D sky130_fd_sc_hd__dfrtp_2
*CAP
1 *8639:B1 0.000275496
2 *8638:A 0
3 *8641:A2 0
4 *8643:C 3.22918e-05
5 *8645:B 2.30919e-05
6 *8605:C 4.08077e-05
7 *9155:Q 0.000194062
8 *663:30 0.000133636
9 *663:26 0.00014851
10 *663:22 0.000155716
11 *663:16 0.000788514
12 *663:6 0.00114884
13 *8605:C *8605:B 9.42967e-05
14 *8639:B1 *735:1530 0.000211624
15 *8643:C *8643:B 2.49909e-05
16 *8645:B *8605:B 8.40269e-05
17 *663:16 *714:158 0.000115484
18 *663:16 *714:171 2.59835e-05
19 *663:22 *8641:B1 4.82863e-05
20 *8632:A3 *8639:B1 5.83121e-06
21 *8635:B1 *8639:B1 0
22 *8637:B *663:26 3.09233e-05
23 *8639:A3 *8639:B1 1.47256e-05
24 *8640:B1 *663:16 2.75145e-05
25 *8640:B1 *663:22 2.75229e-05
26 *8640:B2 *8639:B1 0
27 *8640:C1 *663:16 8.53113e-06
28 *8641:A1 *663:22 4.66108e-05
29 *8641:A3 *663:22 4.66108e-05
30 *8648:A3 *8605:C 1.34594e-05
31 *8648:A3 *8645:B 8.34281e-06
32 *9155:D *663:16 4.66108e-05
33 *282:18 *8605:C 3.70488e-05
34 *282:22 *663:30 0.000112123
35 *282:42 *663:26 0.000104287
36 *282:42 *663:30 7.23602e-05
37 *291:50 *663:16 3.83041e-05
38 *291:50 *663:22 0.000111518
39 *293:93 *663:16 8.41703e-06
40 *293:101 *8605:C 0
41 *307:10 *663:16 3.54684e-05
42 *661:38 *8639:B1 8.09753e-05
43 *662:18 *8639:B1 2.16104e-05
44 *662:43 *8639:B1 8.66107e-06
45 *662:53 *8645:B 2.75229e-05
46 *662:66 *663:30 0.00013521
47 *662:70 *8643:C 1.08758e-05
48 *662:76 *8643:C 6.51782e-05
49 *662:103 *663:26 0.000134509
50 *662:103 *663:30 4.31106e-05
*RES
1 *9155:Q *663:6 3.775 
2 *663:6 *663:16 12.835 
3 *663:16 *663:22 2.64 
4 *663:22 *663:26 3.635 
5 *663:26 *663:30 4.145 
6 *663:30 *8605:C 2.755 
7 *663:30 *8645:B 2.395 
8 *663:26 *8643:C 4.41 
9 *663:22 *8641:A2 1.6 
10 *663:16 *8638:A 1.6 
11 *663:6 *8639:B1 11.615 
*END

*D_NET *664 0.00265127
*CONN
*I *8641:B1 I *D sky130_fd_sc_hd__o31a_1
*I *8643:B I *D sky130_fd_sc_hd__or4_1
*I *8645:A I *D sky130_fd_sc_hd__or2_1
*I *8605:B I *D sky130_fd_sc_hd__nor4_2
*I *9156:Q O *D sky130_fd_sc_hd__dfrtp_1
*CAP
1 *8641:B1 2.22788e-05
2 *8643:B 0.000137679
3 *8645:A 2.46824e-05
4 *8605:B 0.000271917
5 *9156:Q 0.000158218
6 *664:14 0.000378263
7 *664:10 0.000279693
8 *664:8 0.000240846
9 *8605:C *8605:B 9.42967e-05
10 *8637:A *664:8 0.000128095
11 *8637:A *664:10 3.59531e-06
12 *8643:C *8643:B 2.49909e-05
13 *8645:B *8605:B 8.40269e-05
14 *8648:A2 *8605:B 8.52137e-06
15 *8648:A3 *8605:B 3.83895e-05
16 *8648:A3 *664:8 7.9642e-06
17 *8648:A3 *664:10 0.000134245
18 *8648:A3 *664:14 0.000206811
19 *8648:B1 *8605:B 0
20 *293:101 *8605:B 1.85674e-05
21 *307:10 *664:8 0.000107618
22 *311:10 *8643:B 4.40325e-06
23 *652:52 *664:8 0
24 *662:53 *8605:B 1.12578e-05
25 *662:53 *8645:A 2.75145e-05
26 *662:66 *664:14 7.17811e-05
27 *662:70 *8643:B 1.19928e-05
28 *662:103 *664:10 6.32403e-05
29 *662:103 *664:14 4.20983e-05
30 *663:22 *8641:B1 4.82863e-05
*RES
1 *9156:Q *664:8 7.02 
2 *664:8 *664:10 1.635 
3 *664:10 *664:14 4.4 
4 *664:14 *8605:B 5.44 
5 *664:14 *8645:A 2.05 
6 *664:10 *8643:B 5.085 
7 *664:8 *8641:B1 4.05 
*END

*D_NET *665 0.00842985
*CONN
*I *8512:A1 I *D sky130_fd_sc_hd__o211a_1
*I *8997:B I *D sky130_fd_sc_hd__and2b_1
*I *8744:B I *D sky130_fd_sc_hd__or2_1
*I *8598:D I *D sky130_fd_sc_hd__and4bb_1
*I *8741:B1_N I *D sky130_fd_sc_hd__o21ba_1
*I *8596:D I *D sky130_fd_sc_hd__and4bb_1
*I *9139:Q O *D sky130_fd_sc_hd__dfstp_1
*CAP
1 *8512:A1 0
2 *8997:B 5.39173e-05
3 *8744:B 9.73191e-06
4 *8598:D 0
5 *8741:B1_N 0.000313424
6 *8596:D 4.98089e-05
7 *9139:Q 0.000704204
8 *665:45 0.000448226
9 *665:30 0.000608663
10 *665:18 0.000700617
11 *665:12 0.00044124
12 *665:10 0.000824694
13 *8596:D *8596:C 1.08758e-05
14 *8596:D *8742:B 3.57349e-05
15 *665:10 *707:31 0.000314445
16 *665:10 *711:10 0.000293277
17 *665:10 *711:62 7.36562e-05
18 *665:10 *735:597 0.000498498
19 *665:10 *735:599 0.000117825
20 *665:10 *735:608 3.21271e-05
21 *665:12 *711:10 9.78798e-05
22 *665:30 *8742:B 8.49205e-05
23 *665:30 *9046:CLK 6.53158e-05
24 *665:30 *745:42 0
25 *665:45 *666:14 0.000310424
26 *665:45 *735:1165 0
27 *665:45 *735:1258 3.76596e-05
28 *665:45 *735:1306 1.1561e-05
29 *8512:A2 *665:10 9.50342e-06
30 *8512:A2 *665:12 0.000286642
31 *8512:A2 *665:18 8.53113e-06
32 *8597:A *665:45 7.23602e-05
33 *8742:A *665:30 1.94805e-05
34 *8743:A *665:30 3.00381e-05
35 *8744:A *8744:B 4.82863e-05
36 *8745:A *8744:B 4.82863e-05
37 *8998:S *8997:B 3.00381e-05
38 *9012:A1 *665:10 0.000116853
39 *9140:D *665:10 0.000266405
40 *9166:D *665:10 0.000217973
41 *9169:D *8741:B1_N 5.30673e-05
42 *208:73 *665:18 6.42103e-05
43 *208:88 *665:18 3.73665e-05
44 *237:71 *8741:B1_N 0.00023512
45 *275:106 *665:10 0
46 *275:106 *665:12 0
47 *275:106 *665:18 5.66047e-05
48 *275:106 *665:30 2.99518e-06
49 *275:108 *665:30 0.000110243
50 *292:74 *665:10 0.000157083
51 *292:80 *665:10 1.26626e-05
52 *574:18 *665:10 0.000145864
53 *610:21 *665:10 2.54436e-05
54 *639:14 *665:18 0.000100536
55 *642:12 *665:18 0.000135532
*RES
1 *9139:Q *665:10 23.9025 
2 *665:10 *665:12 3.42 
3 *665:12 *665:18 6.105 
4 *665:18 *665:30 9.53 
5 *665:30 *8596:D 2.41 
6 *665:30 *665:45 7.675 
7 *665:45 *8741:B1_N 7.93 
8 *665:45 *8598:D 1.6 
9 *665:18 *8744:B 4.05 
10 *665:12 *8997:B 4.41 
11 *665:10 *8512:A1 3.6 
*END

*D_NET *666 0.00612245
*CONN
*I *8998:A1 I *D sky130_fd_sc_hd__mux2_1
*I *8742:B I *D sky130_fd_sc_hd__or2_1
*I *8596:C I *D sky130_fd_sc_hd__and4bb_1
*I *8598:B_N I *D sky130_fd_sc_hd__and4bb_1
*I *8591:A_N I *D sky130_fd_sc_hd__and3b_1
*I *9140:Q O *D sky130_fd_sc_hd__dfstp_1
*CAP
1 *8998:A1 2.25519e-05
2 *8742:B 2.55561e-05
3 *8596:C 1.9369e-05
4 *8598:B_N 0.000102099
5 *8591:A_N 0.000919117
6 *9140:Q 0.000360924
7 *666:36 4.49251e-05
8 *666:14 0.00119608
9 *666:12 0.000569244
10 *666:10 0.000777861
11 *8591:A_N *8739:A 6.47516e-05
12 *8591:A_N *9113:CLK 0
13 *8591:A_N *9163:CLK 0
14 *8591:A_N *720:21 0
15 *8591:A_N *720:32 0
16 *8591:A_N *735:1165 0
17 *8591:A_N *747:23 3.45679e-05
18 *8596:C *9046:CLK 4.82863e-05
19 *8742:B *9046:CLK 0.000123225
20 *666:10 *9061:CLK 7.28716e-05
21 *666:10 *9140:SET_B 5.51158e-05
22 *666:10 *711:16 0.000181005
23 *666:12 *9135:CLK 0
24 *666:12 *9140:SET_B 4.41463e-05
25 *666:12 *735:1306 0.000224648
26 *666:14 *720:32 0
27 *666:14 *735:1165 0
28 *666:14 *735:1306 7.21296e-06
29 *8555:A *8591:A_N 7.06865e-05
30 *8592:A2 *8591:A_N 7.35813e-05
31 *8596:B_N *666:14 0.000112105
32 *8596:D *8596:C 1.08758e-05
33 *8596:D *8742:B 3.57349e-05
34 *8598:A_N *8598:B_N 4.9253e-06
35 *8598:C *8598:B_N 5.05437e-05
36 *8598:C *666:14 6.10014e-05
37 *8599:A *8591:A_N 2.87867e-05
38 *8740:A *8591:A_N 0
39 *8986:A1 *8591:A_N 0
40 *9131:D *8591:A_N 0
41 *9137:D *8591:A_N 0
42 *9141:D *666:12 0
43 *9142:D *666:12 0
44 *9142:D *666:14 0
45 *234:22 *666:10 0.000133763
46 *234:22 *666:12 0.00018305
47 *237:71 *8598:B_N 3.59311e-05
48 *620:10 *8591:A_N 0
49 *642:12 *8998:A1 2.16917e-05
50 *642:33 *8998:A1 1.08758e-05
51 *665:30 *8742:B 8.49205e-05
52 *665:45 *666:14 0.000310424
*RES
1 *9140:Q *666:10 9.3075 
2 *666:10 *666:12 8.265 
3 *666:12 *666:14 4.44 
4 *666:14 *8591:A_N 18.615 
5 *666:14 *8598:B_N 5.43 
6 *666:12 *666:36 2 
7 *666:36 *8596:C 2.05 
8 *666:36 *8742:B 2.74 
9 *666:10 *8998:A1 4.05 
*END

*D_NET *667 0.00192578
*CONN
*I *8591:C I *D sky130_fd_sc_hd__and3b_1
*I *8996:A2_N I *D sky130_fd_sc_hd__o2bb2ai_1
*I *9133:Q O *D sky130_fd_sc_hd__dfrtp_1
*CAP
1 *8591:C 0.000217496
2 *8996:A2_N 4.44879e-05
3 *9133:Q 0.00051024
4 *667:8 0.000772224
5 *8591:C *8989:A_N 0
6 *8591:C *9132:CLK 0
7 *8591:C *9133:CLK 0
8 *8591:C *747:23 1.03423e-05
9 *8591:C *747:34 1.44596e-05
10 *8996:A2_N *9132:CLK 0
11 *667:8 *9133:CLK 0.000157119
12 *667:8 *9133:RESET_B 9.36949e-05
13 *8592:A2 *8591:C 4.99619e-05
14 *9133:D *8591:C 1.71013e-05
15 *9133:D *8996:A2_N 3.86529e-05
*RES
1 *9133:Q *667:8 9.915 
2 *667:8 *8996:A2_N 4.47 
3 *667:8 *8591:C 7.32 
*END

*D_NET *668 0.00141702
*CONN
*I *8840:C I *D sky130_fd_sc_hd__nor3_4
*I *8738:A I *D sky130_fd_sc_hd__buf_2
*I *9169:Q O *D sky130_fd_sc_hd__dfrtp_1
*CAP
1 *8840:C 7.97115e-05
2 *8738:A 4.82098e-05
3 *9169:Q 0.000305392
4 *668:10 0.000433313
5 *8738:A *735:1364 9.66021e-05
6 *8840:C *721:85 1.22762e-05
7 *668:10 *721:85 5.21714e-05
8 *668:10 *735:1350 0
9 *8741:A1 *8738:A 3.00381e-05
10 *9048:D *8840:C 0.000143266
11 *9049:D *8840:C 0
12 *9049:D *668:10 0.000142661
13 *385:6 *8738:A 1.61831e-05
14 *385:23 *8840:C 5.72004e-05
*RES
1 *9169:Q *668:10 8.43 
2 *668:10 *8738:A 5.085 
3 *668:10 *8840:C 6 
*END

*D_NET *669 0.00057853
*CONN
*I *8594:A2 I *D sky130_fd_sc_hd__o21a_1
*I *9137:Q O *D sky130_fd_sc_hd__dfrtp_1
*CAP
1 *8594:A2 0.000142309
2 *9137:Q 0.000142309
3 *8594:A2 *720:32 7.23533e-05
4 *8594:A1 *8594:A2 6.68594e-05
5 *9137:D *8594:A2 0.000154699
*RES
1 *9137:Q *8594:A2 9.93 
*END

*D_NET *670 0.004579
*CONN
*I *8593:B I *D sky130_fd_sc_hd__nor2_1
*I *8590:B1 I *D sky130_fd_sc_hd__o311a_1
*I *9138:Q O *D sky130_fd_sc_hd__dfrtp_1
*CAP
1 *8593:B 0.000141096
2 *8590:B1 0.00064388
3 *9138:Q 0.000460801
4 *670:8 0.00124578
5 *8590:B1 *761:28 0.000115773
6 *8593:B *8729:A 6.5265e-05
7 *8593:B *9138:CLK 0.000119277
8 *8593:B *761:28 0.000209183
9 *670:8 *9138:RESET_B 9.30977e-05
10 *8490:A *8590:B1 0.000104382
11 *8590:A3 *8590:B1 4.00541e-06
12 *8592:A2 *8590:B1 0.000212919
13 *8994:C *8590:B1 0
14 *9138:D *670:8 0.000187352
15 *9178:A *8590:B1 0.000247381
16 *188:25 *8590:B1 6.58339e-05
17 *189:20 *8590:B1 7.30547e-05
18 *189:61 *8590:B1 0.000465812
19 *620:72 *8590:B1 0.00012411
*RES
1 *9138:Q *670:8 9.57 
2 *670:8 *8590:B1 17.655 
3 *670:8 *8593:B 8.295 
*END

*D_NET *671 0.00743807
*CONN
*I *8518:B1 I *D sky130_fd_sc_hd__o21ai_2
*I *8531:C I *D sky130_fd_sc_hd__and4b_1
*I *8493:C1 I *D sky130_fd_sc_hd__o311a_1
*I *8537:D_N I *D sky130_fd_sc_hd__nor4b_1
*I *8520:A1 I *D sky130_fd_sc_hd__o311ai_4
*I *8525:B2 I *D sky130_fd_sc_hd__a221o_1
*I *9092:Q O *D sky130_fd_sc_hd__dfstp_2
*CAP
1 *8518:B1 3.48514e-05
2 *8531:C 0.000307117
3 *8493:C1 0
4 *8537:D_N 1.63287e-05
5 *8520:A1 0.000159641
6 *8525:B2 0
7 *9092:Q 0.000496777
8 *671:71 0.000465671
9 *671:47 0.000435375
10 *671:41 0.000637183
11 *671:28 0.000513933
12 *671:14 0.000826339
13 *8518:B1 *9187:A 4.82919e-05
14 *8518:B1 *9188:A 0
15 *8520:A1 *8537:A 2.49909e-05
16 *8520:A1 *8537:B 3.25831e-05
17 *8531:C *8537:B 9.50342e-06
18 *8531:C *702:66 4.21314e-05
19 *8537:D_N *8537:A 9.53428e-06
20 *671:14 *707:153 7.68414e-06
21 *671:14 *717:10 0.00042877
22 *671:14 *735:274 9.3062e-06
23 *671:14 *735:290 4.94326e-05
24 *671:28 *8518:A1 6.44959e-05
25 *671:28 *9187:A 1.47256e-05
26 *671:41 *9187:A 0.000100018
27 *671:41 *716:10 3.83041e-05
28 *671:47 *8537:A 1.91597e-05
29 *671:47 *9187:A 1.61831e-05
30 *671:47 *716:10 0.000234685
31 *671:71 *8537:B 7.47284e-05
32 *671:71 *702:66 5.16418e-05
33 *671:71 *702:74 0.000112123
34 *671:71 *716:10 0
35 *8502:B *671:71 0
36 *8503:A1 *671:71 7.06865e-05
37 *8518:A2 *8518:B1 2.34602e-05
38 *8525:A2 *671:28 1.2818e-05
39 *8525:B1 *671:28 2.25157e-05
40 *8525:B1 *671:41 7.79933e-05
41 *8531:B *8531:C 0.000348699
42 *8537:C *671:47 7.68414e-06
43 *8675:B1 *8520:A1 3.57846e-05
44 *8807:A *671:28 0.000307368
45 *9092:D *671:28 0.00013521
46 *190:26 *671:28 0.000289297
47 *190:26 *671:41 2.76356e-05
48 *190:28 *8520:A1 0.000157083
49 *190:105 *8520:A1 5.53249e-06
50 *191:6 *8531:C 8.40213e-05
51 *192:25 *8520:A1 0.000374232
52 *213:12 *8531:C 2.23407e-05
53 *213:12 *671:71 7.40673e-05
54 *213:14 *671:71 4.7771e-05
55 *581:42 *671:14 3.23663e-05
56 *581:57 *671:14 0
*RES
1 *9092:Q *671:14 12.62 
2 *671:14 *671:28 11.5 
3 *671:28 *8525:B2 1.6 
4 *671:28 *671:41 3.9 
5 *671:41 *671:47 3.675 
6 *671:47 *8520:A1 10.49 
7 *671:47 *8537:D_N 1.96 
8 *671:41 *671:71 5.675 
9 *671:71 *8493:C1 3.6 
10 *671:71 *8531:C 8.115 
11 *671:14 *8518:B1 2.665 
*END

*D_NET *672 0.00400874
*CONN
*I *8523:B1 I *D sky130_fd_sc_hd__a21o_1
*I *8520:A3 I *D sky130_fd_sc_hd__o311ai_4
*I *8519:A1 I *D sky130_fd_sc_hd__o21bai_2
*I *8504:A1 I *D sky130_fd_sc_hd__a21o_1
*I *9093:Q O *D sky130_fd_sc_hd__dfrtp_4
*CAP
1 *8523:B1 0.000170973
2 *8520:A3 0
3 *8519:A1 0.000201421
4 *8504:A1 0.000135781
5 *9093:Q 0.000465306
6 *672:29 0.000201421
7 *672:27 0.000335589
8 *672:16 0.000765703
9 *672:16 *8526:A1 8.31621e-05
10 *8497:B *672:16 3.26889e-05
11 *8502:A *8523:B1 8.23457e-05
12 *8503:A1 *8523:B1 2.25119e-05
13 *8518:A2 *8523:B1 0.000111448
14 *8520:A2 *8519:A1 8.84612e-05
15 *8520:C1 *8519:A1 0.00052254
16 *8521:B *8523:B1 2.42236e-05
17 *8521:B *672:27 0
18 *8526:B1 *8504:A1 0.000198051
19 *8526:B1 *672:16 0.000109297
20 *8672:A *8523:B1 0
21 *8672:A *672:27 3.84331e-05
22 *189:84 *8523:B1 2.76356e-05
23 *193:112 *672:16 0.000130209
24 *195:52 *672:27 0
25 *216:10 *8519:A1 1.56428e-05
26 *216:10 *672:16 0
27 *216:10 *672:27 0.000245893
28 *216:22 *672:16 0
*RES
1 *9093:Q *672:16 13.745 
2 *672:16 *8504:A1 3.43 
3 *672:16 *672:27 5.675 
4 *672:27 *672:29 2 
5 *672:29 *8519:A1 7.015 
6 *672:29 *8520:A3 1.6 
7 *672:27 *8523:B1 7.08 
*END

*D_NET *673 0.00891121
*CONN
*I *9022:A1 I *D sky130_fd_sc_hd__a21o_1
*I *8523:A2 I *D sky130_fd_sc_hd__a21o_1
*I *8501:A I *D sky130_fd_sc_hd__nand2_1
*I *8669:B1 I *D sky130_fd_sc_hd__o21a_1
*I *8516:A I *D sky130_fd_sc_hd__or4_2
*I *8667:A I *D sky130_fd_sc_hd__nor2_1
*I *8544:B I *D sky130_fd_sc_hd__and2b_1
*I *9094:Q O *D sky130_fd_sc_hd__dfrtp_4
*CAP
1 *9022:A1 0.00014423
2 *8523:A2 0.000262449
3 *8501:A 7.7269e-05
4 *8669:B1 0
5 *8516:A 0.000254636
6 *8667:A 1.27947e-05
7 *8544:B 0.000169354
8 *9094:Q 5.39409e-05
9 *673:93 0.00075882
10 *673:78 0.000994525
11 *673:65 0.000699991
12 *673:44 0.000535718
13 *673:31 0.000481684
14 *673:8 0.000545979
15 *8501:A *702:74 1.31519e-05
16 *8501:A *702:82 8.56852e-05
17 *8516:A *8516:B 4.05674e-06
18 *8516:A *8516:C 4.99619e-05
19 *8516:A *742:10 6.23659e-05
20 *8516:A *742:20 0.000282186
21 *8523:A2 *677:47 1.52184e-05
22 *8544:B *674:34 0.00011686
23 *8544:B *675:53 1.67513e-05
24 *8667:A *8529:B1 0
25 *8667:A *8667:B 5.4155e-06
26 *8667:A *8670:B2 5.4155e-06
27 *9022:A1 *677:47 7.45302e-05
28 *673:31 *8670:B2 5.30673e-05
29 *673:31 *675:68 2.96426e-05
30 *673:44 *8670:B2 8.38126e-05
31 *673:44 *675:68 0
32 *673:93 *8499:A 8.43946e-05
33 *673:93 *8524:A 4.66108e-05
34 *673:93 *677:24 8.49205e-05
35 *673:93 *702:74 5.37018e-05
36 *673:93 *702:82 1.90458e-05
37 *8499:D_N *8501:A 0.000120655
38 *8501:B *673:78 0.000405086
39 *8502:A *8523:A2 9.03508e-06
40 *8525:A1 *8523:A2 9.91666e-05
41 *8525:B1 *8523:A2 7.23602e-05
42 *8525:C1 *8523:A2 0.00018305
43 *8529:C1 *673:31 3.09164e-05
44 *8532:A2 *8501:A 8.23457e-05
45 *8532:A2 *673:78 6.6015e-05
46 *8533:A1 *673:8 4.00541e-06
47 *8533:A1 *673:31 0.000232105
48 *8533:B1 *8516:A 0
49 *8533:B1 *673:31 2.7881e-05
50 *8539:A1 *8544:B 0.000158072
51 *8539:A2 *8516:A 0
52 *8545:A1 *673:8 1.1392e-05
53 *8545:A1 *673:31 2.65814e-06
54 *8669:A2 *673:78 4.82919e-05
55 *8670:A2 *673:31 8.8266e-05
56 *8670:A2 *673:44 0.000164171
57 *8670:A2 *673:65 6.8725e-06
58 *8670:B1 *673:31 0
59 *8670:C1 *673:65 3.09083e-05
60 *9022:A2 *8523:A2 0
61 *9022:A2 *9022:A1 5.83121e-06
62 *9022:B1 *9022:A1 3.09088e-05
63 *9023:A1 *8523:A2 7.23533e-05
64 *9023:A1 *9022:A1 0.000160651
65 *9023:A2 *673:93 8.73389e-06
66 *9023:C1 *9022:A1 1.90762e-05
67 *189:76 *8523:A2 4.41506e-05
68 *190:42 *8516:A 9.35509e-05
69 *193:48 *673:31 5.16418e-05
70 *193:65 *673:31 0.000185398
71 *198:10 *8523:A2 4.5867e-05
72 *198:10 *9022:A1 8.08153e-06
73 *199:14 *673:78 4.66108e-05
74 *218:8 *8523:A2 1.19928e-05
75 *226:10 *8516:A 0
76 *621:79 *673:65 4.82919e-05
77 *621:79 *673:78 5.66359e-05
*RES
1 *9094:Q *673:8 2.41 
2 *673:8 *8544:B 8.81 
3 *673:8 *673:31 11.005 
4 *673:31 *8667:A 1.96 
5 *673:31 *673:44 3.15 
6 *673:44 *8516:A 11.96 
7 *673:44 *673:65 2.55 
8 *673:65 *8669:B1 1.6 
9 *673:65 *673:78 8.685 
10 *673:78 *8501:A 4.39 
11 *673:78 *673:93 6.605 
12 *673:93 *8523:A2 9.45 
13 *673:93 *9022:A1 6.975 
*END

*D_NET *674 0.00492267
*CONN
*I *8535:A2 I *D sky130_fd_sc_hd__a32o_1
*I *8543:A1 I *D sky130_fd_sc_hd__o211a_1
*I *8529:B1 I *D sky130_fd_sc_hd__o311a_1
*I *8674:A1 I *D sky130_fd_sc_hd__o2111a_1
*I *8516:C I *D sky130_fd_sc_hd__or4_2
*I *8542:A1 I *D sky130_fd_sc_hd__a21o_1
*I *9095:Q O *D sky130_fd_sc_hd__dfrtp_2
*CAP
1 *8535:A2 4.61965e-05
2 *8543:A1 5.842e-05
3 *8529:B1 0.000107253
4 *8674:A1 0
5 *8516:C 0.000314348
6 *8542:A1 0
7 *9095:Q 0
8 *674:38 0.000219925
9 *674:34 0.000402566
10 *674:21 0.000664224
11 *674:12 0.000430904
12 *674:4 0.000358698
13 *8516:C *8516:D 0.000533405
14 *8529:B1 *8529:A1 6.00864e-05
15 *8529:B1 *8529:A3 0.00018955
16 *8529:B1 *8667:B 4.00541e-06
17 *8529:B1 *8674:A2 0
18 *8529:B1 *675:68 1.34503e-05
19 *8535:A2 *9097:RESET_B 6.03947e-06
20 *8535:A2 *675:29 1.22762e-05
21 *8543:A1 *675:53 9.50342e-06
22 *8543:A1 *675:62 1.10537e-05
23 *674:12 *9097:RESET_B 6.31816e-05
24 *674:12 *675:29 0.000130241
25 *674:12 *675:38 2.42236e-05
26 *674:12 *708:104 9.91257e-05
27 *674:12 *735:155 0.00010816
28 *674:12 *735:159 0
29 *674:12 *735:163 0
30 *674:21 *675:38 0
31 *674:34 *675:38 0
32 *674:34 *675:53 0
33 *674:38 *675:62 1.10631e-05
34 *8516:A *8516:C 4.99619e-05
35 *8533:A1 *674:38 7.23533e-05
36 *8534:A3 *8535:A2 0.000139933
37 *8540:A1 *674:12 0
38 *8540:A1 *674:21 7.97083e-05
39 *8544:B *674:34 0.00011686
40 *8545:A2 *674:38 0
41 *8667:A *8529:B1 0
42 *190:42 *8516:C 1.60203e-05
43 *190:44 *8516:C 8.82557e-05
44 *190:61 *674:34 0.000245491
45 *190:61 *674:38 4.20164e-05
46 *193:81 *8529:B1 2.75229e-05
47 *193:81 *674:38 3.09164e-05
48 *220:31 *674:38 1.79098e-05
49 *231:14 *674:21 9.50342e-06
50 *231:14 *674:34 0.000108322
*RES
1 *9095:Q *674:4 1.6 
2 *674:4 *674:12 7.7 
3 *674:12 *8542:A1 3.6 
4 *674:12 *674:21 2.4 
5 *674:21 *8516:C 10.605 
6 *674:21 *674:34 5.1075 
7 *674:34 *674:38 4.0175 
8 *674:38 *8674:A1 1.6 
9 *674:38 *8529:B1 4.135 
10 *674:34 *8543:A1 4.6275 
11 *674:4 *8535:A2 7.34375 
*END

*D_NET *675 0.0072898
*CONN
*I *8536:B1 I *D sky130_fd_sc_hd__o311a_1
*I *8674:A2 I *D sky130_fd_sc_hd__o2111a_1
*I *8673:A I *D sky130_fd_sc_hd__or4_1
*I *8670:B2 I *D sky130_fd_sc_hd__a221o_1
*I *8667:B I *D sky130_fd_sc_hd__nor2_1
*I *8543:A2 I *D sky130_fd_sc_hd__o211a_1
*I *8516:D I *D sky130_fd_sc_hd__or4_2
*I *8528:B I *D sky130_fd_sc_hd__and4_1
*I *8541:A1 I *D sky130_fd_sc_hd__a21o_1
*I *9096:Q O *D sky130_fd_sc_hd__dfrtp_4
*CAP
1 *8536:B1 0.000109464
2 *8674:A2 5.79496e-05
3 *8673:A 0.000157376
4 *8670:B2 7.65307e-05
5 *8667:B 1.41344e-05
6 *8543:A2 0
7 *8516:D 9.76811e-05
8 *8528:B 0
9 *8541:A1 0.000214674
10 *9096:Q 0
11 *675:92 0.000354529
12 *675:88 0.000293759
13 *675:68 0.00028594
14 *675:62 0.000290712
15 *675:53 0.000261485
16 *675:38 0.000448138
17 *675:29 0.000270751
18 *675:4 0.000346107
19 *8536:B1 *8529:A1 3.81679e-05
20 *8536:B1 *8529:A2 0.000213529
21 *8536:B1 *8673:C 0
22 *8536:B1 *684:27 9.53428e-06
23 *8541:A1 *9096:RESET_B 7.00685e-05
24 *8541:A1 *9097:RESET_B 2.49909e-05
25 *8541:A1 *735:159 0
26 *8541:A1 *735:163 0.000108647
27 *8667:B *8529:A1 0
28 *8673:A *8529:A3 3.18137e-05
29 *8673:A *8673:C 0.000127562
30 *8673:A *9175:RESET_B 2.54606e-05
31 *8673:A *682:52 5.23362e-05
32 *8673:A *684:27 0.00015896
33 *8674:A2 *8529:A3 1.16578e-05
34 *675:29 *9097:RESET_B 2.49909e-05
35 *675:68 *8529:A1 8.65961e-05
36 *675:88 *8529:A2 7.23533e-05
37 *675:92 *8529:A3 0.00015639
38 *8516:C *8516:D 0.000533405
39 *8528:C *675:29 9.50342e-06
40 *8528:C *675:38 0.00027064
41 *8528:C *675:53 9.30787e-05
42 *8529:B1 *8667:B 4.00541e-06
43 *8529:B1 *8674:A2 0
44 *8529:B1 *675:68 1.34503e-05
45 *8534:A3 *675:29 0
46 *8535:A2 *675:29 1.22762e-05
47 *8535:A3 *675:29 3.82431e-05
48 *8539:A1 *8673:A 7.4027e-05
49 *8540:A1 *8541:A1 2.45351e-05
50 *8543:A1 *675:53 9.50342e-06
51 *8543:A1 *675:62 1.10537e-05
52 *8544:B *675:53 1.67513e-05
53 *8545:A2 *8673:A 5.83121e-06
54 *8545:B1 *8673:A 8.73389e-06
55 *8667:A *8667:B 5.4155e-06
56 *8667:A *8670:B2 5.4155e-06
57 *9095:D *8541:A1 0.000120186
58 *190:42 *8516:D 0.000415325
59 *190:44 *8516:D 0.000118081
60 *193:65 *8536:B1 3.81149e-05
61 *193:65 *675:62 3.98952e-05
62 *193:65 *675:88 1.53032e-05
63 *193:81 *8536:B1 4.66108e-05
64 *193:81 *8673:A 2.86265e-06
65 *193:81 *8674:A2 2.65239e-05
66 *220:31 *8536:B1 0.000126679
67 *220:31 *675:62 7.4027e-05
68 *220:31 *675:88 0.000109009
69 *220:35 *675:53 0.000187476
70 *220:35 *675:62 9.50342e-06
71 *673:31 *8670:B2 5.30673e-05
72 *673:31 *675:68 2.96426e-05
73 *673:44 *8670:B2 8.38126e-05
74 *673:44 *675:68 0
75 *674:12 *675:29 0.000130241
76 *674:12 *675:38 2.42236e-05
77 *674:21 *675:38 0
78 *674:34 *675:38 0
79 *674:34 *675:53 0
80 *674:38 *675:62 1.10631e-05
*RES
1 *9096:Q *675:4 1.6 
2 *675:4 *8541:A1 10.205 
3 *675:4 *675:29 4.64 
4 *675:29 *8528:B 3.6 
5 *675:29 *675:38 3.165 
6 *675:38 *8516:D 8.535 
7 *675:38 *675:53 4.485 
8 *675:53 *8543:A2 3.6 
9 *675:53 *675:62 1.38 
10 *675:62 *675:68 4.535 
11 *675:68 *8667:B 1.96 
12 *675:68 *8670:B2 3.55375 
13 *675:62 *675:88 1.38 
14 *675:88 *675:92 3.83 
15 *675:92 *8673:A 9.515 
16 *675:92 *8674:A2 3.025 
17 *675:88 *8536:B1 7.095 
*END

*D_NET *676 0.00207771
*CONN
*I *8530:B I *D sky130_fd_sc_hd__and2_1
*I *8516:B I *D sky130_fd_sc_hd__or4_2
*I *8498:B2 I *D sky130_fd_sc_hd__a32o_1
*I *9097:Q O *D sky130_fd_sc_hd__dfrtp_1
*CAP
1 *8530:B 0.000239269
2 *8516:B 0.000129449
3 *8498:B2 0
4 *9097:Q 0.000198328
5 *676:27 0.000575002
6 *676:14 0.000404612
7 *8530:B *8538:B1 0
8 *8498:A2 *8530:B 9.37731e-05
9 *8498:A2 *676:14 0
10 *8498:A2 *676:27 0
11 *8516:A *8516:B 4.05674e-06
12 *8538:A2 *8530:B 0
13 *190:42 *8516:B 8.80354e-06
14 *190:105 *676:14 0
15 *190:105 *676:27 0
16 *212:6 *8516:B 8.23457e-05
17 *212:6 *676:27 0.000161529
18 *621:23 *676:14 0
19 *621:34 *8530:B 0.000163448
20 *621:43 *8530:B 1.70935e-05
*RES
1 *9097:Q *676:14 6.33 
2 *676:14 *8498:B2 3.6 
3 *676:14 *676:27 5.12 
4 *676:27 *8516:B 3.085 
5 *676:27 *8530:B 10.55 
*END

*D_NET *677 0.0128227
*CONN
*I *8947:B2 I *D sky130_fd_sc_hd__o2bb2a_1
*I *8552:A2 I *D sky130_fd_sc_hd__o31a_1
*I *8518:A1 I *D sky130_fd_sc_hd__o21ai_2
*I *8492:A I *D sky130_fd_sc_hd__inv_2
*I *8537:B I *D sky130_fd_sc_hd__nor4b_1
*I *8524:A I *D sky130_fd_sc_hd__or2_1
*I *9177:Q O *D sky130_fd_sc_hd__dfrtp_4
*CAP
1 *8947:B2 0.000379086
2 *8552:A2 0
3 *8518:A1 0.000287991
4 *8492:A 0
5 *8537:B 0.00043059
6 *8524:A 4.42982e-05
7 *9177:Q 0.000591167
8 *677:90 0.000770431
9 *677:47 0.00062376
10 *677:24 0.000409835
11 *677:18 0.00085573
12 *677:14 0.00137788
13 *8518:A1 *9187:A 4.82919e-05
14 *8524:A *8499:A 1.85674e-05
15 *8537:B *8493:A2 0.000124895
16 *8537:B *8493:A3 3.83194e-05
17 *8537:B *8531:D 0.000162214
18 *8537:B *704:67 0
19 *8537:B *706:43 9.80943e-06
20 *8947:B2 *8547:C 0.00014307
21 *8947:B2 *9098:CLK 9.50342e-06
22 *8947:B2 *723:33 0.000677244
23 *8947:B2 *763:26 0.00053598
24 *677:47 *8493:A3 0.000118987
25 *677:90 *9098:CLK 0.000139238
26 *677:90 *9098:RESET_B 0
27 *677:90 *735:268 0
28 *8493:B1 *677:47 0
29 *8518:A2 *8518:A1 2.49909e-05
30 *8520:A1 *8537:B 3.25831e-05
31 *8523:A2 *677:47 1.52184e-05
32 *8531:B *8537:B 2.6772e-05
33 *8531:C *8537:B 9.50342e-06
34 *8555:A *677:14 3.26889e-05
35 *8555:B *677:14 0.000146305
36 *8675:A1 *8537:B 8.65961e-05
37 *8675:B1 *8537:B 0.000332795
38 *8807:A *8518:A1 0
39 *8897:B1 *8947:B2 2.27497e-05
40 *8947:B1 *8947:B2 0.000471702
41 *8947:B1 *677:90 9.50342e-06
42 *9022:A1 *677:47 7.45302e-05
43 *9022:A2 *8518:A1 0.00022755
44 *9022:B1 *677:47 0
45 *9022:B1 *677:90 0
46 *9023:A2 *8524:A 1.83847e-05
47 *9023:A2 *677:24 2.59835e-05
48 *9023:B1 *677:14 7.26551e-05
49 *9023:B1 *677:18 2.34158e-05
50 *9023:C1 *8518:A1 7.47215e-05
51 *9092:D *8518:A1 7.55391e-05
52 *9099:D *8947:B2 0.00016163
53 *9173:D *677:18 0.000148275
54 *9173:D *677:24 0.000130997
55 *190:12 *677:14 3.05295e-05
56 *190:26 *677:14 2.75145e-05
57 *191:6 *677:47 4.66108e-05
58 *192:6 *8537:B 8.65905e-05
59 *192:21 *8537:B 5.96857e-05
60 *192:25 *8537:B 5.73362e-05
61 *193:127 *8518:A1 0.00013521
62 *193:142 *8518:A1 0.00022282
63 *198:10 *677:47 0.000162318
64 *199:14 *8537:B 6.26955e-05
65 *213:12 *8537:B 7.30547e-05
66 *236:77 *8947:B2 1.79483e-05
67 *237:46 *677:90 5.2089e-05
68 *239:36 *677:90 0
69 *505:56 *8947:B2 0.000263595
70 *581:57 *677:14 0.000298442
71 *581:57 *677:90 0.000829165
72 *642:33 *8947:B2 8.43946e-05
73 *671:28 *8518:A1 6.44959e-05
74 *671:71 *8537:B 7.47284e-05
75 *673:93 *8524:A 4.66108e-05
76 *673:93 *677:24 8.49205e-05
*RES
1 *9177:Q *677:14 13.365 
2 *677:14 *677:18 6.59 
3 *677:18 *677:24 2.985 
4 *677:24 *8524:A 2.665 
5 *677:24 *677:47 8.545 
6 *677:47 *8537:B 19.365 
7 *677:47 *8492:A 1.6 
8 *677:18 *8518:A1 12.785 
9 *677:14 *677:90 9.795 
10 *677:90 *8552:A2 3.6 
11 *677:90 *8947:B2 17.775 
*END

*D_NET *678 0.00418592
*CONN
*I *8821:B I *D sky130_fd_sc_hd__nand3_1
*I *8535:B2 I *D sky130_fd_sc_hd__a32o_1
*I *9088:Q O *D sky130_fd_sc_hd__dfrtp_1
*CAP
1 *8821:B 0.000793152
2 *8535:B2 0.000152236
3 *9088:Q 0.000115152
4 *678:6 0.00106054
5 *8535:B2 *708:98 6.31891e-05
6 *8535:B2 *735:148 0
7 *8535:B2 *735:155 0
8 *8821:B *8522:A3 0.000197264
9 *8821:B *708:14 0
10 *8821:B *708:16 0
11 *8821:B *708:64 6.42013e-05
12 *8821:B *708:157 0
13 *8821:B *735:125 0.000111285
14 *8821:B *735:1011 2.96426e-05
15 *678:6 *9088:RESET_B 8.65905e-05
16 *8522:A2 *8821:B 4.43871e-06
17 *8534:A3 *8535:B2 5.4256e-05
18 *8535:B1 *8535:B2 0.000217474
19 *8829:C *8821:B 0.000129422
20 *9089:D *8535:B2 7.89767e-05
21 *9091:D *8821:B 0.000175366
22 *216:34 *8821:B 0.000806673
23 *449:32 *8821:B 4.60584e-05
*RES
1 *9088:Q *678:6 3.43 
2 *678:6 *8535:B2 9.89 
3 *678:6 *8821:B 23.465 
*END

*D_NET *679 0.00205165
*CONN
*I *8829:B I *D sky130_fd_sc_hd__nand3_1
*I *8534:A1 I *D sky130_fd_sc_hd__a311o_1
*I *9089:Q O *D sky130_fd_sc_hd__dfrtp_1
*CAP
1 *8829:B 0.000529566
2 *8534:A1 0.000340558
3 *9089:Q 0
4 *679:4 0.000870124
5 *8534:A1 *708:98 0
6 *8534:A1 *708:104 2.75145e-05
7 *8534:A1 *742:10 0
8 *8829:B *708:87 9.99415e-05
9 *8829:A *8829:B 1.16578e-05
10 *8829:C *8829:B 8.8266e-05
11 *216:34 *8534:A1 8.40213e-05
*RES
1 *9089:Q *679:4 1.6 
2 *679:4 *8534:A1 10.94 
3 *679:4 *8829:B 9.58 
*END

*D_NET *680 0.0025539
*CONN
*I *9000:A I *D sky130_fd_sc_hd__or2b_1
*I *8526:A1 I *D sky130_fd_sc_hd__a31o_1
*I *8816:B I *D sky130_fd_sc_hd__nand3_1
*I *9090:Q O *D sky130_fd_sc_hd__dfrtp_1
*CAP
1 *9000:A 0.000169077
2 *8526:A1 0.000308327
3 *8816:B 0.000188997
4 *9090:Q 0
5 *680:23 0.000537229
6 *680:6 0.000248821
7 *8816:B *9186:A 0
8 *8816:B *707:157 0
9 *8497:A *8526:A1 0.000201503
10 *8497:B *8526:A1 4.60584e-05
11 *8526:B1 *8526:A1 3.00381e-05
12 *8816:A *8816:B 9.53428e-06
13 *9000:B_N *9000:A 1.83847e-05
14 *9176:D *8526:A1 0
15 *9176:D *8816:B 5.92767e-05
16 *9176:D *680:23 0.000103192
17 *193:112 *8526:A1 0.00011852
18 *195:39 *8526:A1 1.91597e-05
19 *196:14 *8526:A1 7.22354e-05
20 *448:18 *8816:B 1.61831e-05
21 *448:20 *8816:B 2.11084e-05
22 *449:20 *8526:A1 7.23602e-05
23 *449:20 *8816:B 0.000133074
24 *449:20 *680:23 9.766e-05
25 *449:24 *8816:B 0
26 *672:16 *8526:A1 8.31621e-05
*RES
1 *9090:Q *680:6 3.6 
2 *680:6 *8816:B 7.665 
3 *680:6 *680:23 4.145 
4 *680:23 *8526:A1 12.02 
5 *680:23 *9000:A 3.43 
*END

*D_NET *681 0.00270149
*CONN
*I *8808:B I *D sky130_fd_sc_hd__nand3_1
*I *8522:A3 I *D sky130_fd_sc_hd__a31o_1
*I *9091:Q O *D sky130_fd_sc_hd__dfrtp_1
*CAP
1 *8808:B 0.00029864
2 *8522:A3 0.000406072
3 *9091:Q 0
4 *681:4 0.000704712
5 *8522:A3 *9091:RESET_B 5.16418e-05
6 *8522:A3 *708:14 7.06865e-05
7 *8522:A3 *708:16 9.78012e-05
8 *8522:A3 *708:157 0
9 *8522:A3 *735:125 4.82863e-05
10 *8808:B *9091:RESET_B 0
11 *8808:B *9179:A 0.000425301
12 *8808:B *708:8 9.66106e-05
13 *8808:B *708:157 3.09233e-05
14 *8808:B *735:1011 0
15 *8522:B1 *8522:A3 5.83121e-06
16 *8821:B *8522:A3 0.000197264
17 *8829:A *8808:B 1.61831e-05
18 *8829:C *8522:A3 7.07722e-05
19 *8829:C *8808:B 4.11025e-05
20 *8830:B2 *8808:B 0
21 *216:34 *8522:A3 5.30673e-05
22 *449:24 *8808:B 8.65961e-05
*RES
1 *9091:Q *681:4 1.6 
2 *681:4 *8522:A3 13.115 
3 *681:4 *8808:B 12.35 
*END

*D_NET *682 0.00572891
*CONN
*I *9016:A2 I *D sky130_fd_sc_hd__o21bai_1
*I *9017:A2 I *D sky130_fd_sc_hd__a21o_1
*I *9019:A2 I *D sky130_fd_sc_hd__o21a_1
*I *8527:B I *D sky130_fd_sc_hd__nor3_1
*I *8529:A2 I *D sky130_fd_sc_hd__o311a_1
*I *8536:A2 I *D sky130_fd_sc_hd__o311a_1
*I *8673:C I *D sky130_fd_sc_hd__or4_1
*I *9014:B_N I *D sky130_fd_sc_hd__or2b_1
*I *9015:A1 I *D sky130_fd_sc_hd__a22o_1
*I *9170:Q O *D sky130_fd_sc_hd__dfrtp_4
*CAP
1 *9016:A2 0
2 *9017:A2 0.000182821
3 *9019:A2 0
4 *8527:B 4.84912e-05
5 *8529:A2 0.000185752
6 *8536:A2 0
7 *8673:C 0.000153588
8 *9014:B_N 0.000232014
9 *9015:A1 0
10 *9170:Q 0
11 *682:65 0.000207286
12 *682:52 0.000389045
13 *682:44 0.000442482
14 *682:38 0.000300139
15 *682:36 0.000302892
16 *682:34 0.000104254
17 *682:8 0.000339397
18 *682:4 0.000211637
19 *8527:B *8527:A 3.64998e-06
20 *8529:A2 *8529:A1 0.000167648
21 *8529:A2 *8536:A1 7.00889e-06
22 *8529:A2 *684:27 1.34503e-05
23 *8673:C *8536:A1 5.83121e-06
24 *8673:C *684:27 2.75025e-05
25 *9014:B_N *683:16 4.82919e-05
26 *9014:B_N *683:24 0
27 *9014:B_N *735:198 0
28 *9017:A2 *9017:A1 0.000196376
29 *9017:A2 *9019:A1 0
30 *9017:A2 *683:24 0
31 *9017:A2 *683:26 0.00010511
32 *9017:A2 *683:28 5.53249e-06
33 *682:8 *683:24 0
34 *682:8 *735:191 0
35 *682:8 *735:198 0
36 *682:34 *9016:B1_N 7.75783e-05
37 *682:38 *9019:A1 9.50342e-06
38 *682:38 *683:28 0.000105002
39 *682:44 *9019:A1 2.05641e-05
40 *682:44 *684:16 0
41 *682:44 *684:51 0
42 *682:44 *735:183 0.00015829
43 *682:52 *8529:A3 2.42236e-05
44 *682:52 *8536:A1 4.9968e-05
45 *682:52 *9175:RESET_B 1.67513e-05
46 *682:52 *683:56 6.61295e-05
47 *682:52 *684:16 0
48 *682:52 *735:183 0.000183738
49 *682:65 *8536:A1 2.75229e-05
50 *8536:B1 *8529:A2 0.000213529
51 *8536:B1 *8673:C 0
52 *8673:A *8673:C 0.000127562
53 *8673:A *682:52 5.23362e-05
54 *9015:A2 *9017:A2 3.26889e-05
55 *9020:B *682:38 0
56 *9020:B *682:44 3.83902e-05
57 *9021:B2 *682:34 1.33347e-05
58 *9170:D *682:8 0
59 *9171:D *9014:B_N 0.000122337
60 *9172:D *682:34 0.000316415
61 *9172:D *682:38 0
62 *193:65 *8529:A2 1.19928e-05
63 *220:31 *8527:B 2.50602e-05
64 *533:12 *9017:A2 0.000138749
65 *537:16 *9017:A2 3.72916e-05
66 *537:28 *9014:B_N 0.000107398
67 *675:88 *8529:A2 7.23533e-05
*RES
1 *9170:Q *682:4 1.6 
2 *682:4 *682:8 3.89 
3 *682:8 *9015:A1 3.6 
4 *682:8 *9014:B_N 7.95 
5 *682:4 *682:34 3.225 
6 *682:34 *682:36 2 
7 *682:36 *682:38 2.4 
8 *682:38 *682:44 3.3 
9 *682:44 *682:52 6.74 
10 *682:52 *8673:C 4.24 
11 *682:52 *682:65 0.45 
12 *682:65 *8536:A2 1.6 
13 *682:65 *8529:A2 9.665 
14 *682:44 *8527:B 4.395 
15 *682:38 *9019:A2 3.6 
16 *682:36 *9017:A2 8.775 
17 *682:34 *9016:A2 1.6 
*END

*D_NET *683 0.00630554
*CONN
*I *9018:A1 I *D sky130_fd_sc_hd__a22o_1
*I *9017:A1 I *D sky130_fd_sc_hd__a21o_1
*I *9016:A1 I *D sky130_fd_sc_hd__o21bai_1
*I *8529:A1 I *D sky130_fd_sc_hd__o311a_1
*I *8673:B I *D sky130_fd_sc_hd__or4_1
*I *8536:A1 I *D sky130_fd_sc_hd__o311a_1
*I *8527:A I *D sky130_fd_sc_hd__nor3_1
*I *9019:A1 I *D sky130_fd_sc_hd__o21a_1
*I *9171:Q O *D sky130_fd_sc_hd__dfrtp_4
*CAP
1 *9018:A1 0
2 *9017:A1 0.000137738
3 *9016:A1 0
4 *8529:A1 0.000318588
5 *8673:B 0.000240013
6 *8536:A1 5.55852e-05
7 *8527:A 4.20474e-05
8 *9019:A1 5.15228e-05
9 *9171:Q 0.000309755
10 *683:69 0.000558601
11 *683:56 0.000217587
12 *683:45 0.000324106
13 *683:28 0.000252663
14 *683:26 0.000126924
15 *683:24 0.000345425
16 *683:16 0.000471601
17 *8529:A1 *684:27 3.74161e-05
18 *8536:A1 *8529:A3 8.53113e-06
19 *8536:A1 *684:27 4.66108e-05
20 *8673:B *684:16 3.09233e-05
21 *8673:B *684:27 0.000268734
22 *8673:B *763:10 0
23 *683:28 *716:24 0
24 *683:45 *716:24 0
25 *683:45 *735:183 2.88519e-05
26 *683:56 *735:183 0.000252977
27 *8527:B *8527:A 3.64998e-06
28 *8529:A2 *8529:A1 0.000167648
29 *8529:A2 *8536:A1 7.00889e-06
30 *8529:B1 *8529:A1 6.00864e-05
31 *8536:B1 *8529:A1 3.81679e-05
32 *8667:B *8529:A1 0
33 *8673:C *8536:A1 5.83121e-06
34 *9014:B_N *683:16 4.82919e-05
35 *9014:B_N *683:24 0
36 *9015:A2 *683:16 0.000107528
37 *9015:B2 *683:16 5.67189e-05
38 *9017:A2 *9017:A1 0.000196376
39 *9017:A2 *9019:A1 0
40 *9017:A2 *683:24 0
41 *9017:A2 *683:26 0.00010511
42 *9017:A2 *683:28 5.53249e-06
43 *9018:B1 *683:16 3.70488e-05
44 *9018:B2 *683:16 9.53428e-06
45 *9020:A *683:28 7.55313e-05
46 *9171:D *683:16 8.73359e-05
47 *9175:D *8673:B 0.00011852
48 *193:65 *8529:A1 0.000331014
49 *193:81 *8529:A1 3.77271e-05
50 *220:31 *8527:A 8.23457e-05
51 *220:31 *8529:A1 1.44259e-05
52 *220:31 *683:45 0.000100139
53 *220:31 *683:56 0
54 *534:19 *683:16 0
55 *534:19 *683:24 2.06083e-05
56 *534:19 *683:26 6.02123e-05
57 *534:19 *683:28 3.76596e-05
58 *537:28 *683:16 0
59 *675:68 *8529:A1 8.65961e-05
60 *682:8 *683:24 0
61 *682:38 *9019:A1 9.50342e-06
62 *682:38 *683:28 0.000105002
63 *682:44 *9019:A1 2.05641e-05
64 *682:52 *8536:A1 4.9968e-05
65 *682:52 *683:56 6.61295e-05
66 *682:65 *8536:A1 2.75229e-05
*RES
1 *9171:Q *683:16 10.895 
2 *683:16 *683:24 3.86 
3 *683:24 *683:26 1.38 
4 *683:26 *683:28 2.5275 
5 *683:28 *9019:A1 4.2825 
6 *683:28 *683:45 4.3025 
7 *683:45 *8527:A 2.395 
8 *683:45 *683:56 5.93 
9 *683:56 *8536:A1 4.665 
10 *683:56 *683:69 2 
11 *683:69 *8673:B 9.5 
12 *683:69 *8529:A1 12.545 
13 *683:26 *9016:A1 3.6 
14 *683:24 *9017:A1 5.43 
15 *683:16 *9018:A1 1.6 
*END

*D_NET *684 0.00456819
*CONN
*I *8527:C I *D sky130_fd_sc_hd__nor3_1
*I *9019:B1 I *D sky130_fd_sc_hd__o21a_1
*I *9021:A1 I *D sky130_fd_sc_hd__a22o_1
*I *8536:A3 I *D sky130_fd_sc_hd__o311a_1
*I *8529:A3 I *D sky130_fd_sc_hd__o311a_1
*I *8673:D I *D sky130_fd_sc_hd__or4_1
*I *9172:Q O *D sky130_fd_sc_hd__dfrtp_2
*CAP
1 *8527:C 7.36965e-05
2 *9019:B1 8.65625e-06
3 *9021:A1 0.000281783
4 *8536:A3 0
5 *8529:A3 0.00017232
6 *8673:D 3.3941e-05
7 *9172:Q 8.57219e-05
8 *684:51 0.000419783
9 *684:27 0.000287232
10 *684:16 0.000399004
11 *684:12 0.000392585
12 *684:8 0.000172508
13 *9021:A1 *9174:RESET_B 5.17287e-05
14 *9021:A1 *701:20 0
15 *9021:A1 *716:24 5.53249e-06
16 *684:8 *716:34 1.03323e-05
17 *684:16 *716:34 0.000162325
18 *684:16 *763:10 0
19 *684:51 *716:34 2.14129e-05
20 *684:51 *735:185 8.57406e-05
21 *8529:A1 *684:27 3.74161e-05
22 *8529:A2 *684:27 1.34503e-05
23 *8529:B1 *8529:A3 0.00018955
24 *8536:A1 *8529:A3 8.53113e-06
25 *8536:A1 *684:27 4.66108e-05
26 *8536:B1 *684:27 9.53428e-06
27 *8539:A1 *8529:A3 0
28 *8673:A *8529:A3 3.18137e-05
29 *8673:A *684:27 0.00015896
30 *8673:B *684:16 3.09233e-05
31 *8673:B *684:27 0.000268734
32 *8673:C *684:27 2.75025e-05
33 *8674:A2 *8529:A3 1.16578e-05
34 *9020:A *9021:A1 2.42236e-05
35 *9020:B *9021:A1 0.000198939
36 *9020:B *684:51 7.37238e-05
37 *9020:C *9019:B1 3.66286e-05
38 *9020:C *9021:A1 6.05513e-05
39 *9020:C *684:51 4.99619e-05
40 *9021:A2 *9021:A1 0
41 *9021:B1 *9021:A1 0.000182802
42 *9172:D *684:8 3.02252e-05
43 *9172:D *684:12 1.31519e-05
44 *9172:D *684:51 5.84378e-05
45 *9175:D *684:16 4.84393e-05
46 *193:65 *684:27 9.72742e-06
47 *193:81 *8529:A3 9.47742e-05
48 *220:31 *8527:C 7.00889e-06
49 *675:92 *8529:A3 0.00015639
50 *682:44 *684:16 0
51 *682:44 *684:51 0
52 *682:52 *8529:A3 2.42236e-05
53 *682:52 *684:16 0
*RES
1 *9172:Q *684:8 3.01 
2 *684:8 *684:12 2.36 
3 *684:12 *684:16 6.185 
4 *684:16 *8673:D 2.05 
5 *684:16 *684:27 3.57 
6 *684:27 *8529:A3 9.665 
7 *684:27 *8536:A3 1.6 
8 *684:12 *684:51 5.465 
9 *684:51 *9021:A1 11.93 
10 *684:51 *9019:B1 2.05 
11 *684:8 *8527:C 2.74 
*END

*D_NET *685 0.00612898
*CONN
*I *8692:A1 I *D sky130_fd_sc_hd__a22o_1
*I *8966:A1 I *D sky130_fd_sc_hd__mux2_1
*I *8939:A1 I *D sky130_fd_sc_hd__a22o_1
*I *9101:Q O *D sky130_fd_sc_hd__dfrtp_1
*CAP
1 *8692:A1 0.000190962
2 *8966:A1 0.00018486
3 *8939:A1 0.000269337
4 *9101:Q 0
5 *685:25 0.00104164
6 *685:4 0.000935156
7 *8939:A1 *686:8 1.34361e-05
8 *8939:A1 *735:215 9.29751e-06
9 *8939:A1 *735:222 2.37321e-05
10 *8966:A1 *700:8 0.000120672
11 *8966:A1 *700:36 7.45794e-05
12 *685:25 *8970:A1 2.00134e-05
13 *685:25 *8972:A0 0.000178425
14 *685:25 *8982:A1 0.000111901
15 *685:25 *722:26 0
16 *8692:A2 *8692:A1 1.45517e-05
17 *8692:B1 *8692:A1 0.000208416
18 *8938:A *685:25 0.000308719
19 *8939:A2 *8939:A1 0.000357118
20 *8939:B1 *8939:A1 0.000357118
21 *8983:B1 *8939:A1 0
22 *347:103 *685:25 0
23 *527:14 *685:25 0.000607461
24 *527:64 *8939:A1 7.10077e-05
25 *527:90 *685:25 0.000234674
26 *534:44 *8966:A1 0.000469302
27 *534:44 *685:25 4.76263e-05
28 *534:59 *685:25 0.000278971
*RES
1 *9101:Q *685:4 1.6 
2 *685:4 *8939:A1 12.365 
3 *685:4 *685:25 17.6 
4 *685:25 *8966:A1 9.615 
5 *685:25 *8692:A1 6.3 
*END

*D_NET *686 0.0128701
*CONN
*I *8699:B2 I *D sky130_fd_sc_hd__a221o_1
*I *8970:A1 I *D sky130_fd_sc_hd__mux2_1
*I *8940:A1 I *D sky130_fd_sc_hd__a22o_1
*I *9102:Q O *D sky130_fd_sc_hd__dfrtp_1
*CAP
1 *8699:B2 0.00149427
2 *8970:A1 3.13035e-05
3 *8940:A1 0.000218032
4 *9102:Q 0.000212127
5 *686:39 0.00200446
6 *686:8 0.00090905
7 *8699:B2 *8906:B 0.000201014
8 *8699:B2 *764:18 0.000756215
9 *8940:A1 *8946:A1 8.23457e-05
10 *8940:A1 *8946:B2 4.82863e-05
11 *686:8 *735:215 0
12 *686:39 *8946:A1 0.000123225
13 *686:39 *8953:A1 0.000224674
14 *686:39 *8971:A1 4.66108e-05
15 *686:39 *692:10 5.70461e-06
16 *686:39 *692:25 0.000489335
17 *686:39 *764:18 0.000183845
18 *8693:C1 *8699:B2 0.000943275
19 *8702:B1 *8699:B2 7.76509e-05
20 *8703:B2 *8699:B2 2.98652e-05
21 *8722:A3 *8699:B2 1.92979e-05
22 *8733:A2 *8699:B2 0
23 *8733:C1 *8699:B2 0.0033885
24 *8733:C1 *686:39 0.00019488
25 *8939:A1 *686:8 1.34361e-05
26 *8939:A2 *686:8 0.000316792
27 *8939:A2 *686:39 4.03257e-05
28 *8940:B1 *8940:A1 1.16578e-05
29 *9102:D *8940:A1 0.000124007
30 *9108:D *686:8 7.06865e-05
31 *9108:D *686:39 8.53113e-06
32 *275:31 *8699:B2 1.79483e-05
33 *345:102 *686:39 5.8678e-05
34 *347:103 *8970:A1 2.04531e-05
35 *525:59 *8940:A1 0.000115767
36 *527:16 *8940:A1 9.27255e-06
37 *533:49 *686:39 6.03272e-05
38 *537:50 *686:8 0
39 *537:67 *686:8 0
40 *537:67 *686:39 0.000298208
41 *685:25 *8970:A1 2.00134e-05
*RES
1 *9102:Q *686:8 8.55 
2 *686:8 *8940:A1 7.62 
3 *686:8 *686:39 14.4316 
4 *686:39 *8970:A1 4.5875 
5 *686:39 *8699:B2 12.0754 
*END

*D_NET *687 0.0048285
*CONN
*I *8941:A1 I *D sky130_fd_sc_hd__a22o_1
*I *8707:A1 I *D sky130_fd_sc_hd__a221o_1
*I *8972:A1 I *D sky130_fd_sc_hd__mux2_1
*I *9103:Q O *D sky130_fd_sc_hd__dfrtp_1
*CAP
1 *8941:A1 0.000425631
2 *8707:A1 0.000632753
3 *8972:A1 0
4 *9103:Q 0
5 *687:8 0.00123121
6 *687:4 0.00102409
7 *8707:A1 *8707:B2 0.000175726
8 *8707:A1 *695:8 2.88679e-05
9 *8707:A1 *695:14 1.81522e-05
10 *8707:A1 *722:12 0.000135297
11 *8707:A1 *737:22 0.000390466
12 *8941:A1 *8982:A0 0
13 *8941:A1 *722:67 0.000223204
14 *8941:A1 *722:73 6.38806e-05
15 *8707:A2 *8707:A1 3.18332e-05
16 *8707:B1 *8707:A1 9.53428e-06
17 *8707:C1 *8707:A1 0
18 *8973:B1 *687:8 0.00027209
19 *347:49 *8707:A1 3.06427e-05
20 *347:51 *8707:A1 3.21904e-05
21 *525:8 *8707:A1 1.63344e-05
22 *525:42 *8941:A1 8.65961e-05
*RES
1 *9103:Q *687:4 1.6 
2 *687:4 *687:8 9.09 
3 *687:8 *8972:A1 1.6 
4 *687:8 *8707:A1 16.7 
5 *687:4 *8941:A1 12.56 
*END

*D_NET *688 0.00738327
*CONN
*I *8942:A1 I *D sky130_fd_sc_hd__a22o_1
*I *8974:A1 I *D sky130_fd_sc_hd__mux2_1
*I *8709:B2 I *D sky130_fd_sc_hd__a221o_1
*I *9104:Q O *D sky130_fd_sc_hd__dfrtp_1
*CAP
1 *8942:A1 0
2 *8974:A1 0.000221055
3 *8709:B2 0.00172609
4 *9104:Q 0
5 *688:39 0.000534082
6 *688:4 0.00203912
7 *8709:B2 *8705:B2 0
8 *8709:B2 *8727:B2 0
9 *8709:B2 *735:837 8.30403e-05
10 *8709:B2 *737:47 1.88904e-05
11 *8709:B2 *740:25 6.32637e-06
12 *8974:A1 *8974:A0 4.82863e-05
13 *8974:A1 *739:34 6.07575e-06
14 *688:39 *9074:RESET_B 0
15 *688:39 *739:34 0.000141467
16 *688:39 *748:18 7.4027e-05
17 *8721:C1 *8709:B2 0
18 *8727:A1 *8709:B2 1.88175e-05
19 *8727:C1 *8709:B2 0.00196419
20 *8728:A3 *8709:B2 1.92979e-05
21 *8942:A2 *8974:A1 1.46828e-05
22 *8942:A2 *688:39 4.99619e-05
23 *8942:B1 *8974:A1 0.00015639
24 *8951:A1 *8709:B2 7.96104e-06
25 *343:47 *8709:B2 6.93523e-06
26 *345:23 *8709:B2 8.41703e-06
27 *345:38 *8709:B2 6.03947e-06
28 *345:54 *8709:B2 0.000232116
29 *515:30 *8709:B2 0
30 *531:18 *8709:B2 0
*RES
1 *9104:Q *688:4 1.6 
2 *688:4 *8709:B2 14.5645 
3 *688:4 *688:39 9.475 
4 *688:39 *8974:A1 4.48 
5 *688:39 *8942:A1 1.6 
*END

*D_NET *689 0.00654621
*CONN
*I *8716:B2 I *D sky130_fd_sc_hd__a221o_1
*I *8976:A1 I *D sky130_fd_sc_hd__mux2_1
*I *8943:A1 I *D sky130_fd_sc_hd__a22o_1
*I *9105:Q O *D sky130_fd_sc_hd__dfrtp_1
*CAP
1 *8716:B2 0.00140168
2 *8976:A1 0.000221001
3 *8943:A1 0
4 *9105:Q 5.78203e-05
5 *689:14 0.00059636
6 *689:8 0.00183486
7 *8716:B2 *8711:A1 3.95409e-05
8 *8716:B2 *8721:B2 1.01661e-05
9 *8716:B2 *8929:A3 1.83847e-05
10 *8716:B2 *8929:B1 1.93046e-05
11 *8716:B2 *9181:A 2.0414e-05
12 *8716:B2 *709:8 0.000328078
13 *8716:B2 *710:10 5.05521e-05
14 *8716:B2 *738:44 0.000866207
15 *8716:B2 *739:59 0.000113255
16 *689:8 *9126:RESET_B 0
17 *689:8 *748:18 4.94404e-05
18 *689:14 *9074:RESET_B 0.0001249
19 *689:14 *9126:RESET_B 0
20 *689:14 *748:18 9.98776e-05
21 *8695:A *8716:B2 0.000200495
22 *8713:A2 *8716:B2 1.12643e-05
23 *8716:A1 *8716:B2 1.37895e-05
24 *8716:B1 *8716:B2 6.03947e-06
25 *8716:C1 *8716:B2 9.50342e-06
26 *8721:B1 *8716:B2 0
27 *8908:A *8716:B2 0.000131811
28 *8929:B2 *8716:B2 2.75145e-05
29 *8943:A2 *689:14 3.00381e-05
30 *8943:B1 *8976:A1 0.000124007
31 *8976:S *8976:A1 2.11084e-05
32 *9105:D *689:14 0
33 *344:60 *8716:B2 0
34 *345:54 *8716:B2 5.83121e-06
35 *514:20 *8716:B2 5.58672e-05
36 *515:30 *8716:B2 4.91816e-05
37 *521:16 *8716:B2 7.92464e-06
*RES
1 *9105:Q *689:8 4.725 
2 *689:8 *689:14 8.39 
3 *689:14 *8943:A1 1.6 
4 *689:14 *8976:A1 4.48 
5 *689:8 *8716:B2 32.5187 
*END

*D_NET *690 0.00176933
*CONN
*I *8978:A1 I *D sky130_fd_sc_hd__mux2_1
*I *8720:A1 I *D sky130_fd_sc_hd__a22o_1
*I *8944:A1 I *D sky130_fd_sc_hd__a22o_1
*I *9106:Q O *D sky130_fd_sc_hd__dfrtp_1
*CAP
1 *8978:A1 4.5471e-05
2 *8720:A1 8.32569e-05
3 *8944:A1 0.000511346
4 *9106:Q 0
5 *690:21 0.000263959
6 *690:4 0.000646577
7 *8720:A1 *698:14 5.20968e-05
8 *8944:A1 *9106:RESET_B 4.24575e-05
9 *8944:A1 *739:10 8.09021e-06
10 *8978:A1 *8978:A0 4.99619e-05
11 *8720:B1 *8720:A1 9.53428e-06
12 *8721:C1 *8720:A1 4.18603e-06
13 *8975:B2 *8720:A1 0
14 *8977:B2 *8720:A1 0
15 *8979:B1 *8720:A1 1.37328e-05
16 *9106:D *8944:A1 3.86607e-05
*RES
1 *9106:Q *690:4 1.6 
2 *690:4 *8944:A1 11.66 
3 *690:4 *690:21 1.845 
4 *690:21 *8720:A1 7.34 
5 *690:21 *8978:A1 2.395 
*END

*D_NET *691 0.00328385
*CONN
*I *8726:A1 I *D sky130_fd_sc_hd__a22o_1
*I *8980:A1 I *D sky130_fd_sc_hd__mux2_1
*I *8945:A1 I *D sky130_fd_sc_hd__a22o_1
*I *9107:Q O *D sky130_fd_sc_hd__dfrtp_1
*CAP
1 *8726:A1 0.000290426
2 *8980:A1 3.2151e-05
3 *8945:A1 0.000347965
4 *9107:Q 5.09889e-05
5 *691:25 0.000373277
6 *691:6 0.000449654
7 *8726:A1 *8726:B2 0.000541661
8 *8945:A1 *739:34 0.000246223
9 *8980:A1 *8726:B2 2.30292e-05
10 *691:6 *9107:RESET_B 7.94826e-05
11 *691:6 *735:892 8.65961e-05
12 *691:6 *739:34 0.000115779
13 *691:25 *8980:A0 7.75231e-05
14 *691:25 *9129:RESET_B 0.00011852
15 *691:25 *735:909 6.56448e-06
16 *8945:A2 *8945:A1 5.05437e-05
17 *8981:B2 *8945:A1 0.000106368
18 *9107:D *8945:A1 9.10527e-05
19 *345:98 *8726:A1 0.000160641
20 *525:28 *8726:A1 3.54025e-05
*RES
1 *9107:Q *691:6 3.43 
2 *691:6 *8945:A1 9.34 
3 *691:6 *691:25 5.635 
4 *691:25 *8980:A1 2.05 
5 *691:25 *8726:A1 7.93 
*END

*D_NET *692 0.00283415
*CONN
*I *8982:A1 I *D sky130_fd_sc_hd__mux2_1
*I *8732:A1 I *D sky130_fd_sc_hd__a22o_1
*I *8946:A1 I *D sky130_fd_sc_hd__a22o_1
*I *9108:Q O *D sky130_fd_sc_hd__dfrtp_1
*CAP
1 *8982:A1 0.000212875
2 *8732:A1 5.1248e-05
3 *8946:A1 8.77811e-05
4 *9108:Q 6.19676e-05
5 *692:25 0.000627586
6 *692:10 0.000513212
7 *8946:A1 *8953:A1 8.34281e-06
8 *8940:A1 *8946:A1 8.23457e-05
9 *8971:B1 *8732:A1 7.23533e-05
10 *8971:B1 *8982:A1 2.95721e-05
11 *8983:B1 *692:10 0
12 *9108:D *692:10 3.86607e-05
13 *525:59 *8946:A1 2.49909e-05
14 *533:49 *8732:A1 1.34361e-05
15 *533:49 *8982:A1 1.1071e-05
16 *533:58 *8982:A1 2.46185e-05
17 *533:75 *8982:A1 4.62396e-05
18 *534:114 *8732:A1 0
19 *534:114 *8982:A1 0
20 *537:71 *8982:A1 0.000197687
21 *685:25 *8982:A1 0.000111901
22 *686:39 *8946:A1 0.000123225
23 *686:39 *692:10 5.70461e-06
24 *686:39 *692:25 0.000489335
*RES
1 *9108:Q *692:10 6.725 
2 *692:10 *8946:A1 3.43 
3 *692:10 *692:25 7.745 
4 *692:25 *8732:A1 4.725 
5 *692:25 *8982:A1 8.34 
*END

*D_NET *693 0.00317007
*CONN
*I *8692:B2 I *D sky130_fd_sc_hd__a22o_1
*I *8970:A0 I *D sky130_fd_sc_hd__mux2_1
*I *8969:A1 I *D sky130_fd_sc_hd__a22o_1
*I *9123:Q O *D sky130_fd_sc_hd__dfrtp_1
*CAP
1 *8692:B2 0
2 *8970:A0 5.28888e-05
3 *8969:A1 0.000501827
4 *9123:Q 0.000298097
5 *693:21 0.00017361
6 *693:6 0.000920646
7 *8969:A1 *9123:CLK 0
8 *693:21 *9123:RESET_B 0.000141599
9 *693:21 *735:861 0.000191543
10 *8692:A2 *8970:A0 0.000116541
11 *8692:B1 *8970:A0 8.69014e-05
12 *8969:A2 *8969:A1 1.83756e-05
13 *8969:B1 *8969:A1 1.9405e-05
14 *8970:S *8970:A0 4.66108e-05
15 *9123:D *8969:A1 0.000133373
16 *208:23 *693:21 3.85884e-05
17 *534:44 *693:21 0.000402755
18 *534:59 *693:21 2.73058e-05
*RES
1 *9123:Q *693:6 4.81 
2 *693:6 *8969:A1 7.75 
3 *693:6 *693:21 8.95 
4 *693:21 *8970:A0 3.43 
5 *693:21 *8692:B2 1.6 
*END

*D_NET *694 0.00886984
*CONN
*I *8702:A1 I *D sky130_fd_sc_hd__a221o_1
*I *8972:A0 I *D sky130_fd_sc_hd__mux2_1
*I *8971:A1 I *D sky130_fd_sc_hd__a22o_1
*I *9124:Q O *D sky130_fd_sc_hd__dfrtp_1
*CAP
1 *8702:A1 0.00180138
2 *8972:A0 0.000258218
3 *8971:A1 0.000209708
4 *9124:Q 0
5 *694:12 0.0009628
6 *694:4 0.00229625
7 *8702:A1 *8702:B2 2.64351e-05
8 *8702:A1 *8924:A3 0.000109386
9 *8702:A1 *8925:B1 2.46827e-06
10 *8702:A1 *8951:A4 9.52791e-05
11 *8702:A1 *8953:A1 0.000124895
12 *8702:A1 *9071:CLK 8.40269e-05
13 *8702:A1 *9071:RESET_B 1.13009e-05
14 *8971:A1 *8953:A1 0.000156454
15 *8972:A0 *8953:A1 4.78461e-05
16 *8972:A0 *722:24 0
17 *694:12 *8953:A1 6.23259e-05
18 *8693:C1 *8702:A1 5.36523e-05
19 *8702:B1 *8702:A1 4.87439e-05
20 *8897:B1 *8702:A1 7.14215e-05
21 *8898:B1 *8702:A1 8.23457e-05
22 *8925:A2 *8702:A1 8.23457e-05
23 *8932:C *8702:A1 0.000157389
24 *8932:D *8702:A1 0
25 *8949:B1 *8702:A1 8.49205e-05
26 *8951:A1 *8702:A1 0.000234685
27 *8951:B1 *8702:A1 0.000383652
28 *9071:D *8702:A1 8.88631e-05
29 *275:31 *8702:A1 4.39123e-06
30 *347:85 *8972:A0 0.000223727
31 *347:91 *8972:A0 0.000141606
32 *347:103 *8972:A0 5.62413e-05
33 *383:27 *8702:A1 3.63661e-05
34 *502:49 *8702:A1 0.000233004
35 *503:16 *8702:A1 0.000312958
36 *503:30 *8702:A1 8.8266e-05
37 *534:59 *8972:A0 1.14559e-05
38 *685:25 *8972:A0 0.000178425
39 *686:39 *8971:A1 4.66108e-05
*RES
1 *9124:Q *694:4 1.6 
2 *694:4 *694:12 6.18 
3 *694:12 *8971:A1 5.155 
4 *694:12 *8972:A0 12.335 
5 *694:4 *8702:A1 33.29 
*END

*D_NET *695 0.00434671
*CONN
*I *8707:B2 I *D sky130_fd_sc_hd__a221o_1
*I *8974:A0 I *D sky130_fd_sc_hd__mux2_1
*I *8973:A1 I *D sky130_fd_sc_hd__a22o_1
*I *9125:Q O *D sky130_fd_sc_hd__dfrtp_1
*CAP
1 *8707:B2 7.87765e-05
2 *8974:A0 0.000223982
3 *8973:A1 0.000449643
4 *9125:Q 3.96582e-05
5 *695:14 0.000851242
6 *695:8 0.000296052
7 *8707:B2 *737:22 2.8185e-05
8 *8973:A1 *737:16 0.000662897
9 *8974:A0 *9104:CLK 0.000112679
10 *8974:A0 *722:12 0.000124226
11 *695:14 *736:31 6.20564e-05
12 *695:14 *737:16 0.000136264
13 *8707:A1 *8707:B2 0.000175726
14 *8707:A1 *695:8 2.88679e-05
15 *8707:A1 *695:14 1.81522e-05
16 *8707:B1 *8707:B2 5.46726e-06
17 *8707:C1 *695:8 0
18 *8973:B1 *8973:A1 4.22926e-05
19 *8974:A1 *8974:A0 4.82863e-05
20 *8974:S *8974:A0 5.05437e-05
21 *345:87 *8974:A0 1.88656e-05
22 *347:51 *8707:B2 0.000352578
23 *525:8 *695:8 8.66153e-05
24 *525:8 *695:14 3.96263e-05
25 *527:90 *8974:A0 0.000373999
26 *533:75 *8973:A1 4.0031e-05
27 *534:68 *8974:A0 0
*RES
1 *9125:Q *695:8 4.725 
2 *695:8 *695:14 1.3751 
3 *695:14 *8973:A1 5.61603 
4 *695:14 *8974:A0 9.8225 
5 *695:8 *8707:B2 7.17375 
*END

*D_NET *696 0.00615039
*CONN
*I *8711:A1 I *D sky130_fd_sc_hd__a221o_1
*I *8976:A0 I *D sky130_fd_sc_hd__mux2_1
*I *8975:A1 I *D sky130_fd_sc_hd__a22o_1
*I *9126:Q O *D sky130_fd_sc_hd__dfrtp_1
*CAP
1 *8711:A1 0.00110658
2 *8976:A0 0
3 *8975:A1 0.000151327
4 *9126:Q 0
5 *696:12 0.000665134
6 *696:4 0.00162039
7 *8711:A1 *8711:B2 1.12643e-05
8 *8711:A1 *8714:B2 4.41506e-05
9 *8711:A1 *8928:B1 0.000288896
10 *8711:A1 *9181:A 0.000405941
11 *8711:A1 *707:103 0.000123225
12 *8711:A1 *709:8 8.43946e-05
13 *8711:A1 *737:47 8.34281e-06
14 *8711:A1 *738:44 2.46471e-05
15 *8711:A1 *739:59 5.88411e-05
16 *696:12 *9126:RESET_B 4.4133e-05
17 *696:12 *738:12 0
18 *696:12 *738:44 3.81259e-05
19 *8713:A2 *8711:A1 0
20 *8714:B1 *8711:A1 2.0514e-05
21 *8716:B2 *8711:A1 3.95409e-05
22 *8928:A1 *8711:A1 0.000198939
23 *8928:B2 *8711:A1 0.000307049
24 *8976:S *8975:A1 2.75229e-05
25 *8977:A2 *8975:A1 8.49205e-05
26 *8977:B1 *8975:A1 1.33293e-05
27 *9074:D *8711:A1 8.40213e-05
28 *9126:D *8975:A1 0.000160641
29 *9126:D *696:12 7.23602e-05
30 *236:77 *8711:A1 0.000119756
31 *344:66 *8711:A1 3.00381e-05
32 *344:70 *8711:A1 3.57354e-05
33 *515:30 *8711:A1 0.000167046
34 *521:22 *8711:A1 6.59044e-05
35 *521:26 *8711:A1 2.59981e-05
36 *533:122 *8975:A1 2.16833e-05
*RES
1 *9126:Q *696:4 1.6 
2 *696:4 *696:12 10.15 
3 *696:12 *8975:A1 4.825 
4 *696:12 *8976:A0 1.6 
5 *696:4 *8711:A1 29.43 
*END

*D_NET *697 0.00669204
*CONN
*I *8714:A1 I *D sky130_fd_sc_hd__a22o_1
*I *8977:A1 I *D sky130_fd_sc_hd__a22o_1
*I *8978:A0 I *D sky130_fd_sc_hd__mux2_1
*I *9127:Q O *D sky130_fd_sc_hd__dfrtp_1
*CAP
1 *8714:A1 0.00157066
2 *8977:A1 0
3 *8978:A0 0.000207245
4 *9127:Q 0
5 *697:10 0.00086592
6 *697:4 0.00222933
7 *8714:A1 *8547:C 0.000418738
8 *8714:A1 *8714:B2 0
9 *697:10 *9126:CLK 5.98004e-06
10 *697:10 *9127:CLK 2.8185e-05
11 *697:10 *9127:RESET_B 8.24372e-05
12 *8714:A2 *8714:A1 5.37791e-05
13 *8714:B1 *8714:A1 7.00889e-06
14 *8977:A2 *8978:A0 0.000208484
15 *8977:A2 *697:10 9.50342e-06
16 *8977:B1 *8978:A0 0.000208484
17 *8978:A1 *8978:A0 4.99619e-05
18 *8978:S *8978:A0 0.000234674
19 *9127:D *697:10 9.60434e-05
20 *236:85 *8714:A1 7.24682e-05
21 *236:98 *8714:A1 0.000332802
22 *521:16 *8714:A1 1.03323e-05
*RES
1 *9127:Q *697:4 1.6 
2 *697:4 *697:10 10.04 
3 *697:10 *8978:A0 9.21 
4 *697:10 *8977:A1 3.6 
5 *697:4 *8714:A1 26.21 
*END

*D_NET *698 0.00210862
*CONN
*I *8720:B2 I *D sky130_fd_sc_hd__a22o_1
*I *8979:A1 I *D sky130_fd_sc_hd__a22o_1
*I *8980:A0 I *D sky130_fd_sc_hd__mux2_1
*I *9128:Q O *D sky130_fd_sc_hd__dfrtp_1
*CAP
1 *8720:B2 0
2 *8979:A1 2.51634e-05
3 *8980:A0 0.000208017
4 *9128:Q 0.000250936
5 *698:24 0.000362002
6 *698:14 0.000379758
7 *8980:A0 *735:909 0
8 *698:14 *9128:RESET_B 0
9 *698:14 *709:36 5.35969e-06
10 *698:14 *735:909 0
11 *698:24 *735:909 1.37895e-05
12 *8720:A1 *698:14 5.20968e-05
13 *8721:C1 *698:14 0
14 *8977:B2 *698:14 0
15 *8979:A2 *8979:A1 5.67167e-05
16 *8979:A2 *698:14 2.30292e-05
17 *8979:A2 *698:24 0.00014519
18 *8979:B1 *8979:A1 1.47256e-05
19 *8979:B1 *698:14 8.56848e-05
20 *8979:B1 *698:24 0.000237249
21 *8979:B2 *8979:A1 2.34602e-05
22 *8981:B2 *8980:A0 9.24378e-05
23 *525:28 *8980:A0 0
24 *525:28 *698:24 0
25 *537:84 *8979:A1 4.82863e-05
26 *537:130 *698:14 7.1932e-06
27 *691:25 *8980:A0 7.75231e-05
*RES
1 *9128:Q *698:14 9.92 
2 *698:14 *698:24 5.345 
3 *698:24 *8980:A0 7.32 
4 *698:24 *8979:A1 4.665 
5 *698:14 *8720:B2 1.6 
*END

*D_NET *699 0.00361092
*CONN
*I *8982:A0 I *D sky130_fd_sc_hd__mux2_1
*I *8726:B2 I *D sky130_fd_sc_hd__a22o_1
*I *8981:A1 I *D sky130_fd_sc_hd__a22o_1
*I *9129:Q O *D sky130_fd_sc_hd__dfrtp_1
*CAP
1 *8982:A0 0.00027739
2 *8726:B2 0.000163289
3 *8981:A1 9.02133e-05
4 *9129:Q 6.2059e-05
5 *699:14 0.000556123
6 *699:6 0.00064207
7 *8982:A0 *9129:RESET_B 3.51752e-05
8 *699:6 *722:67 4.21973e-05
9 *699:14 *9129:RESET_B 0
10 *699:14 *722:67 0.000138799
11 *8726:A1 *8726:B2 0.000541661
12 *8941:A1 *8982:A0 0
13 *8980:A1 *8726:B2 2.30292e-05
14 *8980:S *8726:B2 0.000161529
15 *8980:S *8982:A0 0.000295708
16 *8981:A2 *8726:B2 0.000241738
17 *8981:A2 *8981:A1 0.000136497
18 *8981:B1 *8981:A1 0.000162311
19 *9129:D *699:14 0
20 *525:28 *8726:B2 2.67275e-05
21 *525:28 *699:14 1.44062e-05
*RES
1 *9129:Q *699:6 2.395 
2 *699:6 *699:14 8.065 
3 *699:14 *8981:A1 4.12 
4 *699:14 *8726:B2 7.93 
5 *699:6 *8982:A0 11.825 
*END

*D_NET *700 0.00493183
*CONN
*I *8983:A1 I *D sky130_fd_sc_hd__a22o_1
*I *8732:B2 I *D sky130_fd_sc_hd__a22o_1
*I *8668:A0 I *D sky130_fd_sc_hd__mux2_1
*I *8670:A1 I *D sky130_fd_sc_hd__a221o_1
*I *9130:Q O *D sky130_fd_sc_hd__dfrtp_1
*CAP
1 *8983:A1 0.000128879
2 *8732:B2 0
3 *8668:A0 3.72196e-05
4 *8670:A1 0.000104957
5 *9130:Q 0
6 *700:36 0.000612851
7 *700:8 0.000908974
8 *700:6 0.00125077
9 *8670:A1 *742:20 0.000121094
10 *700:8 *8963:C 0.000219012
11 *700:8 *9123:CLK 0
12 *700:8 *701:20 3.9442e-05
13 *700:8 *703:10 0.000425128
14 *700:8 *716:24 0
15 *700:8 *742:20 0.00018218
16 *700:8 *742:37 0
17 *700:36 *9123:CLK 0
18 *700:36 *722:26 0
19 *8529:C1 *8668:A0 1.83847e-05
20 *8529:C1 *8670:A1 0
21 *8670:A2 *8670:A1 5.39961e-05
22 *8670:B1 *8670:A1 0.00015995
23 *8692:A2 *8983:A1 0
24 *8692:B1 *700:36 0.000198939
25 *8732:B1 *700:36 0.000167003
26 *8963:A *700:8 0
27 *8966:A0 *700:8 6.24871e-05
28 *8966:A1 *700:8 0.000120672
29 *8966:A1 *700:36 7.45794e-05
30 *8969:B1 *700:8 0
31 *8983:B1 *8983:A1 0
32 *9021:A2 *700:8 0
33 *9130:D *8983:A1 1.1392e-05
34 *9174:D *700:8 3.39151e-05
35 *193:65 *8670:A1 0
36 *208:23 *700:8 0
37 *533:36 *700:8 0
38 *533:49 *700:8 0
*RES
1 *9130:Q *700:6 3.6 
2 *700:6 *700:8 17.19 
3 *700:8 *8670:A1 6.765 
4 *700:8 *8668:A0 4.05 
5 *700:6 *700:36 9.71 
6 *700:36 *8732:B2 1.6 
7 *700:36 *8983:A1 3.445 
*END

*D_NET *701 0.003787
*CONN
*I *8963:B I *D sky130_fd_sc_hd__nor3_1
*I *8967:A1 I *D sky130_fd_sc_hd__o21a_1
*I *8965:A I *D sky130_fd_sc_hd__clkbuf_4
*I *9016:B1_N I *D sky130_fd_sc_hd__o21bai_1
*I *9174:Q O *D sky130_fd_sc_hd__dfrtp_1
*CAP
1 *8963:B 0.000111615
2 *8967:A1 5.60064e-05
3 *8965:A 0
4 *9016:B1_N 0.000323305
5 *9174:Q 0.000290221
6 *701:20 0.0004407
7 *701:12 0.000173401
8 *701:10 0.000401835
9 *8963:B *742:20 0.000195932
10 *8967:A1 *8967:A2 7.5837e-05
11 *701:10 *716:14 0.000214272
12 *701:10 *742:20 9.30717e-05
13 *701:20 *8967:A2 0.000120655
14 *8967:B1 *8967:A1 0.00012657
15 *8968:A *8963:B 7.71016e-05
16 *8968:A *8967:A1 2.15295e-05
17 *8968:A *701:20 1.19928e-05
18 *9017:B1 *9016:B1_N 0.000231217
19 *9021:A1 *701:20 0
20 *9021:A2 *9016:B1_N 0.000239807
21 *9021:A2 *701:20 1.0183e-05
22 *9021:B2 *9016:B1_N 0.000147081
23 *9021:B2 *701:20 0.000158072
24 *9172:D *9016:B1_N 3.79945e-05
25 *534:8 *701:20 4.99619e-05
26 *536:6 *701:20 3.66286e-05
27 *537:16 *8963:B 2.49909e-05
28 *682:34 *9016:B1_N 7.75783e-05
29 *700:8 *701:20 3.9442e-05
*RES
1 *9174:Q *701:10 7.935 
2 *701:10 *701:12 2 
3 *701:12 *701:20 7.045 
4 *701:20 *9016:B1_N 8.62 
5 *701:20 *8965:A 1.6 
6 *701:12 *8967:A1 3.55 
7 *701:10 *8963:B 6.45 
*END

*D_NET *702 0.0142058
*CONN
*I *8719:B I *D sky130_fd_sc_hd__and4b_1
*I *8517:B I *D sky130_fd_sc_hd__nor3_1
*I *8493:A2 I *D sky130_fd_sc_hd__o311a_1
*I *8499:C I *D sky130_fd_sc_hd__or4b_1
*I *8532:B1_N I *D sky130_fd_sc_hd__o21ba_1
*I *8538:B1 I *D sky130_fd_sc_hd__o21a_1
*I *8554:A2 I *D sky130_fd_sc_hd__o21a_1
*I *8950:B2 I *D sky130_fd_sc_hd__a22o_1
*I *9110:Q O *D sky130_fd_sc_hd__dfrtp_4
*CAP
1 *8719:B 0.00113746
2 *8517:B 0
3 *8493:A2 2.00229e-05
4 *8499:C 0
5 *8532:B1_N 2.89361e-05
6 *8538:B1 5.0074e-05
7 *8554:A2 0.000799853
8 *8950:B2 0.000863565
9 *9110:Q 0
10 *702:82 0.000572703
11 *702:74 0.000589022
12 *702:66 0.00029001
13 *702:60 0.000512868
14 *702:35 0.00131279
15 *702:31 0.00150295
16 *702:4 0.00105434
17 *8493:A2 *8493:A3 8.65905e-05
18 *8493:A2 *706:43 7.00889e-06
19 *8554:A2 *8554:A1 0.000476749
20 *8554:A2 *717:67 7.30547e-05
21 *8554:A2 *717:98 7.47284e-05
22 *8719:B *8678:A 0.000275548
23 *8719:B *8934:B2 1.80164e-05
24 *8950:B2 *9112:CLK 5.82425e-05
25 *8950:B2 *704:10 0.000118083
26 *702:35 *717:98 0.000362285
27 *702:60 *8517:C 0.000148972
28 *702:60 *8554:A1 6.97034e-05
29 *702:60 *704:29 0.000124895
30 *702:60 *706:18 4.00541e-06
31 *702:60 *706:20 0.000244253
32 *702:66 *8499:A 0
33 *702:66 *8499:B 0
34 *702:66 *8517:C 4.82919e-05
35 *702:66 *704:29 4.82919e-05
36 *702:66 *706:28 4.92096e-05
37 *702:66 *716:10 0
38 *702:74 *8499:A 2.11921e-05
39 *702:74 *8499:B 0
40 *702:74 *716:10 0
41 *702:82 *8499:A 3.18367e-05
42 *8499:D_N *702:82 0.000120655
43 *8501:A *702:74 1.31519e-05
44 *8501:A *702:82 8.56852e-05
45 *8530:B *8538:B1 0
46 *8531:B *8493:A2 1.12578e-05
47 *8531:C *702:66 4.21314e-05
48 *8532:A1 *702:82 0.0001249
49 *8532:A2 *702:82 0.000105089
50 *8533:A2 *8538:B1 3.86607e-05
51 *8537:B *8493:A2 0.000124895
52 *8538:A2 *8538:B1 6.5525e-05
53 *8685:A1 *8719:B 9.78e-05
54 *8807:A *8554:A2 7.63883e-05
55 *8807:A *702:35 0.000175901
56 *8933:A2 *8719:B 3.23663e-05
57 *8933:B1 *8719:B 0.000277223
58 *8950:B1 *8950:B2 0.000139223
59 *9023:A1 *8950:B2 4.49498e-05
60 *9043:D *8554:A2 0
61 *9099:D *8719:B 9.46111e-06
62 *213:12 *702:66 2.16389e-05
63 *223:8 *8538:B1 9.29751e-06
64 *223:27 *8532:B1_N 1.85674e-05
65 *223:27 *702:82 2.8185e-05
66 *236:37 *702:35 0.000474343
67 *237:46 *8554:A2 2.20732e-05
68 *239:8 *8719:B 0.000197264
69 *239:20 *702:35 0.000162176
70 *239:36 *8554:A2 0.000120655
71 *338:14 *8719:B 0.00012438
72 *338:106 *8719:B 3.57349e-05
73 *505:28 *8950:B2 4.05972e-05
74 *505:64 *8719:B 1.61831e-05
75 *529:18 *8950:B2 3.74161e-05
76 *621:43 *8538:B1 0
77 *621:79 *8532:B1_N 0
78 *671:71 *702:66 5.16418e-05
79 *671:71 *702:74 0.000112123
80 *673:93 *702:74 5.37018e-05
81 *673:93 *702:82 1.90458e-05
*RES
1 *9110:Q *702:4 1.6 
2 *702:4 *8950:B2 18.275 
3 *702:4 *702:31 2.46 
4 *702:31 *702:35 9.5 
5 *702:35 *8554:A2 19.105 
6 *702:35 *702:60 8.675 
7 *702:60 *702:66 5.36 
8 *702:66 *702:74 4.19 
9 *702:74 *702:82 7.05 
10 *702:82 *8538:B1 6.98 
11 *702:82 *8532:B1_N 2.215 
12 *702:74 *8499:C 1.6 
13 *702:66 *8493:A2 4.74 
14 *702:60 *8517:B 1.6 
15 *702:31 *8719:B 16.195 
*END

*D_NET *703 0.00274135
*CONN
*I *8963:C I *D sky130_fd_sc_hd__nor3_1
*I *8967:A2 I *D sky130_fd_sc_hd__o21a_1
*I *9175:Q O *D sky130_fd_sc_hd__dfrtp_1
*CAP
1 *8963:C 0.000100076
2 *8967:A2 0.000163631
3 *9175:Q 0.000417229
4 *703:10 0.000680936
5 *8963:C *742:20 0.000122877
6 *703:10 *742:20 0.000340157
7 *8967:A1 *8967:A2 7.5837e-05
8 *532:8 *8963:C 4.82919e-05
9 *537:16 *8963:C 2.75229e-05
10 *700:8 *8963:C 0.000219012
11 *700:8 *703:10 0.000425128
12 *701:20 *8967:A2 0.000120655
*RES
1 *9175:Q *703:10 11.76 
2 *703:10 *8967:A2 5.775 
3 *703:10 *8963:C 6.705 
*END

*D_NET *704 0.0180484
*CONN
*I *8731:B I *D sky130_fd_sc_hd__and4b_1
*I *8558:A I *D sky130_fd_sc_hd__nor2_1
*I *8537:A I *D sky130_fd_sc_hd__nor4b_1
*I *8521:A I *D sky130_fd_sc_hd__and3_1
*I *8498:A1 I *D sky130_fd_sc_hd__a32o_1
*I *8953:B2 I *D sky130_fd_sc_hd__a22o_1
*I *8531:A_N I *D sky130_fd_sc_hd__and4b_1
*I *8499:A I *D sky130_fd_sc_hd__or4b_1
*I *9112:Q O *D sky130_fd_sc_hd__dfrtp_4
*CAP
1 *8731:B 0.000101212
2 *8558:A 0.00070761
3 *8537:A 4.00429e-05
4 *8521:A 0
5 *8498:A1 0.000109796
6 *8953:B2 0.000746892
7 *8531:A_N 0.000182532
8 *8499:A 0.000246305
9 *9112:Q 0
10 *704:110 0.00196462
11 *704:79 0.00053093
12 *704:67 0.000714745
13 *704:33 0.00113397
14 *704:29 0.00074784
15 *704:10 0.00101776
16 *704:4 0.00163753
17 *8499:A *8493:A3 0.000181376
18 *8499:A *705:18 4.14369e-05
19 *8499:A *716:10 0
20 *8537:A *9187:A 3.26889e-05
21 *8558:A *8729:A 0
22 *8558:A *720:46 0
23 *8558:A *761:28 0
24 *8953:B2 *8950:A1 9.09615e-05
25 *8953:B2 *9110:CLK 0
26 *8953:B2 *716:10 0
27 *8953:B2 *716:83 0
28 *8953:B2 *763:26 3.23663e-05
29 *704:10 *8725:B 2.75229e-05
30 *704:10 *705:18 0.000293733
31 *704:10 *716:10 0
32 *704:10 *735:342 0.000233925
33 *704:10 *735:349 0.000117825
34 *704:10 *735:358 0.000210144
35 *704:29 *706:28 3.54025e-05
36 *704:67 *716:10 0.000487472
37 *704:110 *8725:B 0.000809716
38 *704:110 *9099:CLK 8.65905e-05
39 *704:110 *725:8 6.6925e-05
40 *8498:A3 *8498:A1 0.000541113
41 *8498:B1 *8498:A1 2.24829e-05
42 *8502:B *704:67 0
43 *8502:B *704:79 3.45481e-05
44 *8503:A1 *8499:A 3.03775e-05
45 *8503:B1 *704:79 1.79483e-05
46 *8520:A1 *8537:A 2.49909e-05
47 *8521:C *8498:A1 4.66108e-05
48 *8521:C *704:79 7.3151e-05
49 *8522:B1 *704:79 5.16348e-05
50 *8524:A *8499:A 1.85674e-05
51 *8524:B *8499:A 2.75229e-05
52 *8532:A2 *704:67 0.000116165
53 *8537:B *704:67 0
54 *8537:C *8537:A 8.23457e-05
55 *8537:D_N *8537:A 9.53428e-06
56 *8557:A *8558:A 4.18603e-06
57 *8559:A1 *8558:A 4.00541e-06
58 *8559:B1 *8558:A 0
59 *8672:A *704:79 0.00010963
60 *8675:B1 *8531:A_N 8.8266e-05
61 *8684:A *704:110 0.000169903
62 *8685:A1 *8558:A 0.000131881
63 *8685:A1 *8731:B 0.000225285
64 *8697:A2 *8558:A 6.95735e-05
65 *8697:A3 *8558:A 4.40899e-05
66 *8718:A1 *8558:A 0
67 *8722:A1 *8558:A 0
68 *8722:A3 *704:110 1.17309e-05
69 *8728:A1 *8558:A 0.000170133
70 *8730:A1 *8558:A 0.000252282
71 *8950:B2 *704:10 0.000118083
72 *8952:A1 *704:10 0.000135304
73 *8952:A2 *8953:B2 1.44177e-05
74 *8952:B1_N *8953:B2 9.50114e-05
75 *8953:B1 *8953:B2 3.54536e-05
76 *8967:B1 *8953:B2 0
77 *9023:A1 *704:10 0
78 *9079:D *8558:A 2.05641e-05
79 *9111:D *8953:B2 7.89689e-05
80 *9178:A *8558:A 0
81 *192:21 *704:67 2.77532e-05
82 *192:25 *704:67 0.000126408
83 *192:25 *704:79 0.000188206
84 *196:27 *8498:A1 0.000301785
85 *196:27 *704:79 7.7599e-05
86 *196:33 *8498:A1 2.30292e-05
87 *198:10 *8499:A 8.26536e-05
88 *198:10 *704:10 4.03082e-05
89 *201:12 *704:79 0.000140771
90 *213:12 *8499:A 0.000267591
91 *241:8 *8558:A 0.000102746
92 *336:23 *8558:A 2.84224e-05
93 *336:27 *8558:A 7.97165e-05
94 *340:6 *704:110 0.000113247
95 *340:75 *8731:B 0.000160396
96 *340:75 *704:110 0.000136034
97 *340:86 *8731:B 6.70134e-05
98 *505:28 *704:10 0.000171854
99 *505:28 *704:110 7.74785e-05
100 *671:47 *8537:A 1.91597e-05
101 *673:93 *8499:A 8.43946e-05
102 *702:60 *704:29 0.000124895
103 *702:66 *8499:A 0
104 *702:66 *704:29 4.82919e-05
105 *702:74 *8499:A 2.11921e-05
106 *702:82 *8499:A 3.18367e-05
*RES
1 *9112:Q *704:4 1.6 
2 *704:4 *704:10 15.44 
3 *704:10 *8499:A 10.245 
4 *704:10 *704:29 5.555 
5 *704:29 *704:33 4.175 
6 *704:33 *8531:A_N 7.05 
7 *704:33 *8953:B2 16.53 
8 *704:29 *704:67 9.29 
9 *704:67 *704:79 10.535 
10 *704:79 *8498:A1 6.88 
11 *704:79 *8521:A 1.6 
12 *704:67 *8537:A 4.755 
13 *704:4 *704:110 21.195 
14 *704:110 *8558:A 20.33 
15 *704:110 *8731:B 4.48 
*END

*D_NET *705 0.0083249
*CONN
*I *8725:B I *D sky130_fd_sc_hd__and4b_1
*I *8500:A I *D sky130_fd_sc_hd__inv_2
*I *8517:C I *D sky130_fd_sc_hd__nor3_1
*I *8493:A3 I *D sky130_fd_sc_hd__o311a_1
*I *9111:Q O *D sky130_fd_sc_hd__dfrtp_2
*CAP
1 *8725:B 0.00149494
2 *8500:A 0
3 *8517:C 6.01396e-05
4 *8493:A3 0.000172561
5 *9111:Q 0
6 *705:18 0.000323001
7 *705:14 0.000320291
8 *705:6 0.00172493
9 *8517:C *706:20 8.40213e-05
10 *8517:C *706:28 7.05779e-05
11 *8725:B *706:18 0.000138188
12 *705:14 *9098:CLK 0
13 *705:14 *706:18 0.000134588
14 *705:14 *735:258 0.000347029
15 *8493:A2 *8493:A3 8.65905e-05
16 *8499:A *8493:A3 0.000181376
17 *8499:A *705:18 4.14369e-05
18 *8531:B *8493:A3 3.00381e-05
19 *8537:B *8493:A3 3.83194e-05
20 *8685:A1 *8725:B 0.000579352
21 *8722:A2 *8725:B 0.000157172
22 *9022:B1 *8493:A3 0
23 *191:6 *8493:A3 5.29938e-05
24 *198:10 *8493:A3 0.000183043
25 *198:10 *705:18 0.000335865
26 *275:16 *8725:B 5.2089e-05
27 *579:52 *8725:B 0.000134538
28 *579:52 *705:14 0.000134588
29 *677:47 *8493:A3 0.000118987
30 *702:60 *8517:C 0.000148972
31 *702:66 *8517:C 4.82919e-05
32 *704:10 *8725:B 2.75229e-05
33 *704:10 *705:18 0.000293733
34 *704:110 *8725:B 0.000809716
*RES
1 *9111:Q *705:6 3.6 
2 *705:6 *705:14 8.225 
3 *705:14 *705:18 5.93 
4 *705:18 *8493:A3 8.625 
5 *705:18 *8517:C 5.79 
6 *705:14 *8500:A 1.6 
7 *705:6 *8725:B 31.18 
*END

*D_NET *706 0.0137715
*CONN
*I *8715:B I *D sky130_fd_sc_hd__and4b_1
*I *8949:B2 I *D sky130_fd_sc_hd__a22o_1
*I *8554:A1 I *D sky130_fd_sc_hd__o21a_1
*I *8517:A I *D sky130_fd_sc_hd__nor3_1
*I *8493:A1 I *D sky130_fd_sc_hd__o311a_1
*I *8531:D I *D sky130_fd_sc_hd__and4b_1
*I *8499:B I *D sky130_fd_sc_hd__or4b_1
*I *9109:Q O *D sky130_fd_sc_hd__dfrtp_4
*CAP
1 *8715:B 0.000499017
2 *8949:B2 0.000899308
3 *8554:A1 0.000368553
4 *8517:A 0
5 *8493:A1 0
6 *8531:D 4.19305e-05
7 *8499:B 0.000109645
8 *9109:Q 0
9 *706:43 5.40893e-05
10 *706:28 0.000305047
11 *706:20 0.000405242
12 *706:18 0.00161447
13 *706:8 0.00196141
14 *706:4 0.000537197
15 *8499:B *716:10 0.000136877
16 *8554:A1 *717:67 3.09164e-05
17 *8554:A1 *735:268 0.000179015
18 *8949:B2 *8949:A1 5.53774e-05
19 *8949:B2 *9062:RESET_B 7.69078e-05
20 *8949:B2 *9073:CLK 2.86265e-06
21 *706:8 *8950:A1 0.000137571
22 *706:18 *8950:A1 0.000611708
23 *706:18 *8951:A4 0.000103127
24 *706:18 *763:26 0
25 *706:28 *716:10 6.92175e-05
26 *8493:A2 *706:43 7.00889e-06
27 *8517:C *706:20 8.40213e-05
28 *8517:C *706:28 7.05779e-05
29 *8531:B *8531:D 0.000185956
30 *8531:B *706:43 4.66108e-05
31 *8537:B *8531:D 0.000162214
32 *8537:B *706:43 9.80943e-06
33 *8554:A2 *8554:A1 0.000476749
34 *8715:A_N *8715:B 5.64757e-05
35 *8725:B *706:18 0.000138188
36 *8807:A *706:18 0.000105068
37 *8922:C *8715:B 0
38 *8922:D *8715:B 0.00034189
39 *8923:A *8715:B 4.82919e-05
40 *8924:B2 *8715:B 1.7396e-05
41 *8937:A *8949:B2 0
42 *8949:B1 *8949:B2 3.26889e-05
43 *9023:A1 *706:18 0
44 *9062:D *8949:B2 0.000165269
45 *9062:D *706:8 0.000130707
46 *9062:D *706:18 3.09164e-05
47 *213:12 *706:28 8.65961e-05
48 *236:37 *706:18 0.00049068
49 *237:46 *8554:A1 0.000207879
50 *335:73 *8715:B 0.000215999
51 *383:51 *8949:B2 0.000502803
52 *383:73 *8715:B 7.25441e-05
53 *383:84 *8715:B 0.00014125
54 *383:101 *8715:B 8.71079e-05
55 *502:61 *8715:B 0.000381082
56 *502:70 *8715:B 0.000444257
57 *505:22 *706:18 0
58 *525:8 *8949:B2 3.86607e-05
59 *579:6 *8949:B2 3.81908e-06
60 *579:52 *706:18 0.000252357
61 *702:60 *8554:A1 6.97034e-05
62 *702:60 *706:18 4.00541e-06
63 *702:60 *706:20 0.000244253
64 *702:66 *8499:B 0
65 *702:66 *706:28 4.92096e-05
66 *702:74 *8499:B 0
67 *704:29 *706:28 3.54025e-05
68 *705:14 *706:18 0.000134588
*RES
1 *9109:Q *706:4 1.6 
2 *706:4 *706:8 3.635 
3 *706:8 *706:18 25.97 
4 *706:18 *706:20 4.59 
5 *706:20 *706:28 6.17 
6 *706:28 *8499:B 5.685 
7 *706:28 *706:43 2.45 
8 *706:43 *8531:D 3.33625 
9 *706:43 *8493:A1 1.6 
10 *706:20 *8517:A 1.6 
11 *706:18 *8554:A1 15.44 
12 *706:8 *8949:B2 19.645 
13 *706:4 *8715:B 19.265 
*END

*D_NET *707 0.0459009
*CONN
*I *9191:A I *D sky130_fd_sc_hd__clkbuf_8
*I *9192:A I *D sky130_fd_sc_hd__clkbuf_8
*I *9190:A I *D sky130_fd_sc_hd__clkbuf_8
*I *9188:A I *D sky130_fd_sc_hd__clkbuf_8
*I *9187:A I *D sky130_fd_sc_hd__clkbuf_8
*I *9179:A I *D sky130_fd_sc_hd__clkbuf_8
*I *9186:A I *D sky130_fd_sc_hd__clkbuf_8
*I *9189:A I *D sky130_fd_sc_hd__clkbuf_8
*I *9194:A I *D sky130_fd_sc_hd__clkbuf_8
*I *9181:A I *D sky130_fd_sc_hd__clkbuf_8
*I *9180:A I *D sky130_fd_sc_hd__clkbuf_8
*I *9193:A I *D sky130_fd_sc_hd__clkbuf_8
*I *9183:A I *D sky130_fd_sc_hd__clkbuf_8
*I *9184:A I *D sky130_fd_sc_hd__clkbuf_8
*I *9185:A I *D sky130_fd_sc_hd__clkbuf_8
*I *9182:A I *D sky130_fd_sc_hd__clkbuf_8
*I *9178:X O *D sky130_fd_sc_hd__clkbuf_16
*CAP
1 *9191:A 3.41439e-05
2 *9192:A 6.1665e-05
3 *9190:A 0.000356558
4 *9188:A 2.51456e-05
5 *9187:A 0.000433572
6 *9179:A 0.000504609
7 *9186:A 4.90316e-05
8 *9189:A 0.000717582
9 *9194:A 0
10 *9181:A 0.000394291
11 *9180:A 0
12 *9193:A 0.000164604
13 *9183:A 0.000163352
14 *9184:A 0.000348156
15 *9185:A 5.63053e-05
16 *9182:A 0
17 *9178:X 0
18 *707:221 0.00130371
19 *707:157 0.000996151
20 *707:153 0.000958958
21 *707:151 0.00157155
22 *707:136 0.0023022
23 *707:134 0.00114779
24 *707:132 0.00108471
25 *707:103 0.000742402
26 *707:88 0.00105573
27 *707:78 0.00267824
28 *707:35 0.00101924
29 *707:31 0.00108115
30 *707:16 0.000936177
31 *707:10 0.00326044
32 *707:4 0.00140141
33 *9179:A *708:8 1.19928e-05
34 *9179:A *708:14 2.8185e-05
35 *9181:A *8929:A3 2.75229e-05
36 *9181:A *8929:B1 6.9114e-05
37 *9181:A *709:8 0.000307038
38 *9181:A *739:59 0.00018367
39 *9184:A *9146:SET_B 1.98158e-05
40 *9184:A *735:564 0.000113531
41 *9186:A *715:14 1.89685e-05
42 *9186:A *715:88 0
43 *9187:A *716:10 0.000160491
44 *9189:A *9132:CLK 0
45 *9189:A *9132:SET_B 0
46 *9189:A *718:49 0
47 *9190:A *8659:B 0.000838398
48 *9190:A *719:8 4.66108e-05
49 *9190:A *735:1102 0
50 *9190:A *735:1112 0
51 *9191:A *720:8 5.83121e-06
52 *9193:A *722:6 0.000148883
53 *707:10 *759:18 0.000242182
54 *707:16 *711:78 0.000421981
55 *707:31 *9166:SET_B 0.000100156
56 *707:31 *711:78 4.60584e-05
57 *707:31 *735:608 8.28738e-05
58 *707:35 *9146:SET_B 3.82072e-05
59 *707:78 *8906:B 0.000313275
60 *707:78 *723:10 6.33103e-05
61 *707:78 *764:33 6.43124e-05
62 *707:88 *8898:A1 0.000110555
63 *707:88 *8926:A3 1.85674e-05
64 *707:88 *8950:A1 0
65 *707:88 *722:6 2.05056e-05
66 *707:88 *736:41 4.65522e-05
67 *707:103 *8898:A1 1.88466e-05
68 *707:103 *8951:A4 2.19277e-05
69 *707:103 *9073:CLK 0.000139252
70 *707:103 *709:8 0.000123225
71 *707:103 *735:436 0.000139252
72 *707:103 *735:837 0.000174984
73 *707:103 *737:47 0.000150005
74 *707:103 *740:58 0.000104214
75 *707:103 *744:18 0.000265211
76 *707:132 *9042:RESET_B 0
77 *707:132 *9046:CLK 0.000176873
78 *707:132 *9137:RESET_B 0.000181376
79 *707:132 *720:21 0.000164686
80 *707:132 *720:32 0.000348746
81 *707:132 *720:71 0.000172845
82 *707:132 *735:1187 0
83 *707:132 *735:1189 0
84 *707:134 *9042:RESET_B 0
85 *707:134 *9131:CLK 0.000163985
86 *707:134 *720:21 4.44927e-05
87 *707:151 *8495:A 2.04748e-05
88 *707:151 *717:10 4.70919e-05
89 *707:153 *717:10 5.34747e-05
90 *707:157 *715:88 0
91 *707:157 *715:101 0
92 *707:221 *9131:CLK 2.11084e-05
93 *707:221 *9131:SET_B 0.00019311
94 *8518:A1 *9187:A 4.82919e-05
95 *8518:A2 *9187:A 0.00010491
96 *8518:B1 *9187:A 4.82919e-05
97 *8518:B1 *9188:A 0
98 *8520:B1 *9187:A 0.000312964
99 *8521:B *9187:A 5.99688e-05
100 *8525:C1 *9187:A 0.000181204
101 *8537:A *9187:A 3.26889e-05
102 *8537:C *9187:A 0.000349592
103 *8555:A *9191:A 8.73389e-06
104 *8555:A *707:221 0.000106682
105 *8598:A_N *707:132 1.01661e-05
106 *8608:A *707:35 0.000290668
107 *8659:A *707:221 8.82557e-05
108 *8660:A *9190:A 0.000445846
109 *8693:A1 *707:78 0.000519749
110 *8703:B2 *707:10 0.000112123
111 *8708:B2 *707:88 0.00013798
112 *8711:A1 *9181:A 0.000405941
113 *8711:A1 *707:103 0.000123225
114 *8713:B1 *707:10 3.86529e-05
115 *8716:B2 *9181:A 2.0414e-05
116 *8723:A *707:132 0
117 *8748:A1 *9184:A 0.000113221
118 *8748:A1 *707:35 0.000172946
119 *8749:A1 *9184:A 6.00027e-05
120 *8749:C1 *9184:A 0.000123225
121 *8807:A *707:157 0.00031682
122 *8807:B *707:157 0
123 *8808:B *9179:A 0.000425301
124 *8810:C *9189:A 0
125 *8816:B *9186:A 0
126 *8816:B *707:157 0
127 *8829:A *9179:A 7.99244e-05
128 *8829:C *9179:A 2.75145e-05
129 *8830:B2 *9179:A 0.000464499
130 *8834:A2_N *9189:A 0
131 *8908:A *9181:A 5.4155e-06
132 *8922:D *707:88 0.000139238
133 *8924:A2 *707:78 0.000119756
134 *8925:A2 *707:88 3.09233e-05
135 *8929:B2 *9181:A 1.34503e-05
136 *8986:A1 *707:134 0
137 *8986:A1 *707:151 0.000192209
138 *8986:A2 *707:151 0.000236459
139 *8986:B1 *9189:A 0
140 *8986:B1 *707:136 0
141 *8986:C1 *707:134 0
142 *8986:C1 *707:136 0
143 *8989:C *9189:A 6.14776e-05
144 *8995:A1 *9189:A 0.000113615
145 *8995:B1 *9189:A 0
146 *9000:B_N *707:157 6.10014e-05
147 *9004:A2 *9185:A 8.40213e-05
148 *9007:A1 *9184:A 0.000534304
149 *9007:B1 *9185:A 0.00015639
150 *9009:B1 *707:35 0.000180321
151 *9011:A2 *9183:A 9.01628e-05
152 *9013:A1 *707:31 0.000347023
153 *9073:D *707:88 1.16578e-05
154 *9114:D *707:10 0.000116151
155 *9115:D *707:16 4.80285e-05
156 *9139:D *9184:A 0.000275548
157 *9140:D *707:31 4.9253e-06
158 *9142:D *707:132 0
159 *9143:D *707:157 0
160 *9167:D *9183:A 0.000191232
161 *9167:D *707:31 0.000232999
162 *9176:D *707:157 0.000217958
163 *190:26 *9187:A 0.000137008
164 *195:10 *707:151 0.000502115
165 *195:52 *9187:A 0.000169195
166 *198:10 *9187:A 0.000181691
167 *236:77 *707:78 1.79483e-05
168 *237:107 *9184:A 3.57349e-05
169 *239:103 *707:78 2.39856e-05
170 *239:107 *707:78 1.93765e-05
171 *243:12 *9189:A 0.000145184
172 *261:105 *9189:A 0.000239813
173 *352:107 *707:10 0
174 *441:37 *9189:A 0
175 *446:18 *9179:A 2.86623e-05
176 *448:18 *9179:A 0.000198939
177 *448:20 *9179:A 0.000124007
178 *449:20 *9179:A 0
179 *521:26 *707:88 9.50342e-06
180 *521:28 *707:88 0.00015604
181 *531:18 *707:78 0
182 *571:28 *707:10 1.54558e-05
183 *572:20 *707:10 0.000594281
184 *572:20 *707:78 4.28257e-05
185 *572:20 *707:132 0
186 *581:38 *707:151 0.000259928
187 *581:42 *707:151 0.000962464
188 *610:21 *707:31 7.07879e-05
189 *610:21 *707:35 0
190 *612:42 *9185:A 5.88334e-05
191 *614:56 *9184:A 1.9415e-05
192 *617:25 *707:10 0.000528727
193 *617:25 *707:78 7.42356e-05
194 *619:56 *9183:A 0.000401702
195 *619:56 *707:31 0.000234674
196 *620:10 *9189:A 0
197 *645:12 *9184:A 2.14129e-05
198 *646:33 *9185:A 2.05056e-05
199 *647:20 *9184:A 0.000230435
200 *647:20 *707:35 5.62512e-05
201 *650:10 *707:35 4.9968e-05
202 *665:10 *707:31 0.000314445
203 *671:14 *707:153 7.68414e-06
204 *671:28 *9187:A 1.47256e-05
205 *671:41 *9187:A 0.000100018
206 *671:47 *9187:A 1.61831e-05
*RES
1 *9178:X *707:4 1.6 
2 *707:4 *707:10 17.6 
3 *707:10 *707:16 10.565 
4 *707:16 *9182:A 1.6 
5 *707:16 *707:31 13.75 
6 *707:31 *707:35 14.855 
7 *707:35 *9185:A 5.43 
8 *707:35 *9184:A 13.275 
9 *707:31 *9183:A 6.37 
10 *707:10 *707:78 9.9436 
11 *707:78 *707:88 14.26 
12 *707:88 *9193:A 4.12 
13 *707:88 *707:103 14.68 
14 *707:103 *9180:A 1.6 
15 *707:103 *9181:A 9.775 
16 *707:78 *9194:A 1.6 
17 *707:4 *707:132 18.155 
18 *707:132 *707:134 3.165 
19 *707:134 *707:136 1.89 
20 *707:136 *9189:A 17.355 
21 *707:136 *707:151 29.705 
22 *707:151 *707:153 1.485 
23 *707:153 *707:157 11.285 
24 *707:157 *9186:A 4.47 
25 *707:157 *9179:A 17.86 
26 *707:153 *9187:A 19.34 
27 *707:151 *9188:A 2.215 
28 *707:134 *707:221 13.265 
29 *707:221 *9190:A 15.845 
30 *707:221 *9192:A 2.395 
31 *707:132 *9191:A 4.05 
*END

*D_NET *708 0.0120417
*CONN
*I *9093:CLK I *D sky130_fd_sc_hd__dfrtp_4
*I *9090:CLK I *D sky130_fd_sc_hd__dfrtp_1
*I *9091:CLK I *D sky130_fd_sc_hd__dfrtp_1
*I *9097:CLK I *D sky130_fd_sc_hd__dfrtp_1
*I *9095:CLK I *D sky130_fd_sc_hd__dfrtp_2
*I *9096:CLK I *D sky130_fd_sc_hd__dfrtp_4
*I *9088:CLK I *D sky130_fd_sc_hd__dfrtp_1
*I *9089:CLK I *D sky130_fd_sc_hd__dfrtp_1
*I *9122:CLK I *D sky130_fd_sc_hd__dfrtp_2
*I *9029:CLK I *D sky130_fd_sc_hd__dfrtp_4
*I *9037:CLK I *D sky130_fd_sc_hd__dfrtp_2
*I *9033:CLK I *D sky130_fd_sc_hd__dfrtp_2
*I *9024:CLK I *D sky130_fd_sc_hd__dfrtp_2
*I *9179:X O *D sky130_fd_sc_hd__clkbuf_8
*CAP
1 *9093:CLK 0.000128118
2 *9090:CLK 0
3 *9091:CLK 0
4 *9097:CLK 9.19851e-05
5 *9095:CLK 0
6 *9096:CLK 0.000310163
7 *9088:CLK 0.000120098
8 *9089:CLK 0.000280148
9 *9122:CLK 0.000186364
10 *9029:CLK 0.00015849
11 *9037:CLK 5.66328e-05
12 *9033:CLK 0
13 *9024:CLK 0.000185115
14 *9179:X 0.000154527
15 *708:157 0.000296619
16 *708:106 0.000430261
17 *708:104 0.000552726
18 *708:98 0.000833404
19 *708:87 0.000725402
20 *708:68 0.000552153
21 *708:64 0.000507316
22 *708:20 0.000565886
23 *708:18 0.000589733
24 *708:16 0.000797104
25 *708:14 0.0010689
26 *708:8 0.000507559
27 *9088:CLK *763:10 5.92849e-05
28 *9093:CLK *9093:RESET_B 0
29 *9093:CLK *735:1011 0
30 *9096:CLK *763:10 4.28396e-05
31 *9122:CLK *742:10 0.000181376
32 *708:16 *9091:RESET_B 7.1301e-06
33 *708:16 *735:121 3.6677e-05
34 *708:64 *735:125 2.72908e-05
35 *708:68 *735:125 1.83847e-05
36 *708:68 *735:131 5.58206e-05
37 *708:87 *742:10 0.000164686
38 *708:98 *9088:RESET_B 0
39 *708:98 *742:10 0
40 *708:157 *735:1011 0
41 *8522:A2 *9093:CLK 0
42 *8522:A2 *708:157 0
43 *8522:A3 *708:14 7.06865e-05
44 *8522:A3 *708:16 9.78012e-05
45 *8522:A3 *708:157 0
46 *8522:B1 *9093:CLK 9.86611e-05
47 *8534:A1 *708:98 0
48 *8534:A1 *708:104 2.75145e-05
49 *8534:A3 *9097:CLK 0
50 *8534:A3 *708:104 0.000123225
51 *8534:B1 *9097:CLK 0.000184717
52 *8534:B1 *708:98 9.50342e-06
53 *8535:B1 *9097:CLK 7.26629e-05
54 *8535:B1 *708:98 1.89685e-05
55 *8535:B2 *708:98 6.31891e-05
56 *8808:B *708:8 9.66106e-05
57 *8808:B *708:157 3.09233e-05
58 *8821:B *708:14 0
59 *8821:B *708:16 0
60 *8821:B *708:64 6.42013e-05
61 *8821:B *708:157 0
62 *8822:B2 *708:18 0
63 *8822:B2 *708:20 0
64 *8829:B *708:87 9.99415e-05
65 *8829:C *708:14 0.000120655
66 *8829:C *708:157 1.52184e-05
67 *9029:D *9029:CLK 7.35729e-05
68 *9029:D *708:16 0
69 *9029:D *708:18 0
70 *9033:D *708:20 0
71 *9088:D *9088:CLK 7.89689e-05
72 *9088:D *9096:CLK 6.36578e-05
73 *9089:D *9089:CLK 0.000144577
74 *9089:D *708:98 0
75 *9090:D *9093:CLK 0.000136877
76 *9091:D *708:64 0.000124895
77 *9093:D *9093:CLK 6.57549e-05
78 *9095:D *708:104 7.35729e-05
79 *9096:D *9096:CLK 1.8644e-05
80 *9122:D *9122:CLK 3.07686e-05
81 *9179:A *708:8 1.19928e-05
82 *9179:A *708:14 2.8185e-05
83 *216:22 *9093:CLK 6.97118e-05
84 *216:34 *708:98 0.000118513
85 *216:34 *708:104 1.61831e-05
86 *674:12 *708:104 9.91257e-05
*RES
1 *9179:X *708:8 3.79 
2 *708:8 *708:14 4.7 
3 *708:14 *708:16 8.52 
4 *708:16 *708:18 2.4 
5 *708:18 *708:20 6.225 
6 *708:20 *9024:CLK 6.54 
7 *708:20 *9033:CLK 3.6 
8 *708:18 *9037:CLK 4.395 
9 *708:16 *9029:CLK 6.135 
10 *708:14 *708:64 7.205 
11 *708:64 *708:68 3.83 
12 *708:68 *9122:CLK 7.23 
13 *708:68 *708:87 7.115 
14 *708:87 *9089:CLK 6.535 
15 *708:87 *708:98 5.93 
16 *708:98 *708:104 11.435 
17 *708:104 *708:106 2 
18 *708:106 *9088:CLK 6.405 
19 *708:106 *9096:CLK 8.115 
20 *708:104 *9095:CLK 1.6 
21 *708:98 *9097:CLK 5.745 
22 *708:64 *9091:CLK 1.6 
23 *708:8 *708:157 4.655 
24 *708:157 *9090:CLK 3.6 
25 *708:157 *9093:CLK 7.14 
*END

*D_NET *709 0.0113764
*CONN
*I *9105:CLK I *D sky130_fd_sc_hd__dfrtp_1
*I *9087:CLK I *D sky130_fd_sc_hd__dfxtp_2
*I *9127:CLK I *D sky130_fd_sc_hd__dfrtp_1
*I *9126:CLK I *D sky130_fd_sc_hd__dfrtp_1
*I *9128:CLK I *D sky130_fd_sc_hd__dfrtp_1
*I *9106:CLK I *D sky130_fd_sc_hd__dfrtp_1
*I *9107:CLK I *D sky130_fd_sc_hd__dfrtp_1
*I *9075:CLK I *D sky130_fd_sc_hd__dfrtp_1
*I *9074:CLK I *D sky130_fd_sc_hd__dfrtp_1
*I *9180:X O *D sky130_fd_sc_hd__clkbuf_8
*CAP
1 *9105:CLK 6.89321e-05
2 *9087:CLK 0.00146205
3 *9127:CLK 6.35003e-05
4 *9126:CLK 0.000164864
5 *9128:CLK 0
6 *9106:CLK 0
7 *9107:CLK 0.000118278
8 *9075:CLK 0
9 *9074:CLK 6.41287e-05
10 *9180:X 0.000138827
11 *709:80 0.00161496
12 *709:65 0.000254272
13 *709:42 0.000198711
14 *709:36 0.00121223
15 *709:32 0.00118465
16 *709:30 0.000912447
17 *709:21 0.000856148
18 *709:8 0.000268443
19 *9074:CLK *744:18 9.60963e-05
20 *9087:CLK *738:10 0
21 *9107:CLK *739:10 8.6099e-05
22 *9107:CLK *739:34 7.81954e-05
23 *9107:CLK *741:16 0.000336419
24 *9126:CLK *738:10 0
25 *9126:CLK *738:12 0
26 *709:21 *744:18 9.78876e-05
27 *709:30 *735:461 0.000108038
28 *709:30 *735:473 2.94275e-05
29 *709:36 *9128:RESET_B 2.65337e-05
30 *709:42 *739:10 0.000119277
31 *709:42 *741:16 0.000203002
32 *709:80 *738:10 0
33 *8711:A1 *709:8 8.43946e-05
34 *8716:B2 *709:8 0.000328078
35 *8977:A2 *9126:CLK 8.08439e-05
36 *8978:S *9126:CLK 3.54536e-05
37 *9105:D *709:30 3.45453e-05
38 *9127:D *9105:CLK 1.57678e-05
39 *9127:D *9126:CLK 3.09164e-05
40 *9127:D *9127:CLK 2.49909e-05
41 *9127:D *709:36 1.4389e-05
42 *9127:D *709:80 8.28738e-05
43 *9128:D *709:36 5.6695e-05
44 *9181:A *709:8 0.000307038
45 *383:8 *9074:CLK 0.000181361
46 *383:8 *709:21 0.000172845
47 *525:28 *9107:CLK 0
48 *697:10 *9126:CLK 5.98004e-06
49 *697:10 *9127:CLK 2.8185e-05
50 *698:14 *709:36 5.35969e-06
51 *707:103 *709:8 0.000123225
*RES
1 *9180:X *709:8 8.88 
2 *709:8 *9074:CLK 5.745 
3 *709:8 *709:21 4.145 
4 *709:21 *9075:CLK 1.6 
5 *709:21 *709:30 9.7725 
6 *709:30 *709:32 0.6225 
7 *709:32 *709:36 12.795 
8 *709:36 *709:42 4.85 
9 *709:42 *9107:CLK 7.53 
10 *709:42 *9106:CLK 3.6 
11 *709:36 *9128:CLK 1.6 
12 *709:32 *709:65 2 
13 *709:65 *9126:CLK 6.81 
14 *709:65 *709:80 1.635 
15 *709:80 *9127:CLK 4.74 
16 *709:80 *9087:CLK 27.93 
17 *709:30 *9105:CLK 3.1825 
*END

*D_NET *710 0.0111895
*CONN
*I *9118:CLK I *D sky130_fd_sc_hd__dfstp_2
*I *9041:CLK I *D sky130_fd_sc_hd__dfrtp_1
*I *9067:CLK I *D sky130_fd_sc_hd__dfstp_1
*I *9084:CLK I *D sky130_fd_sc_hd__dfxtp_1
*I *9069:CLK I *D sky130_fd_sc_hd__dfstp_1
*I *9068:CLK I *D sky130_fd_sc_hd__dfstp_1
*I *9077:CLK I *D sky130_fd_sc_hd__dfrtp_1
*I *9078:CLK I *D sky130_fd_sc_hd__dfrtp_4
*I *9119:CLK I *D sky130_fd_sc_hd__dfstp_2
*I *9076:CLK I *D sky130_fd_sc_hd__dfrtp_1
*I *9181:X O *D sky130_fd_sc_hd__clkbuf_8
*CAP
1 *9118:CLK 0.000217469
2 *9041:CLK 0.000690549
3 *9067:CLK 5.66458e-05
4 *9084:CLK 0.000715708
5 *9069:CLK 0
6 *9068:CLK 0
7 *9077:CLK 0
8 *9078:CLK 0.000236119
9 *9119:CLK 2.32275e-05
10 *9076:CLK 0.000412963
11 *9181:X 0.000143901
12 *710:111 0.000834245
13 *710:89 0.000801204
14 *710:85 0.000493702
15 *710:70 0.000449107
16 *710:46 0.000883054
17 *710:42 0.00115824
18 *710:31 0.000504834
19 *710:27 0.00053731
20 *710:10 0.000778458
21 *9041:CLK *9041:RESET_B 0.000254302
22 *9041:CLK *758:8 3.00381e-05
23 *9076:CLK *9076:RESET_B 0.000188916
24 *9076:CLK *735:455 0
25 *9078:CLK *9077:RESET_B 0
26 *9078:CLK *744:16 0
27 *9084:CLK *9041:RESET_B 6.36656e-05
28 *9084:CLK *735:760 9.24049e-05
29 *710:10 *8547:C 0.000124752
30 *710:27 *8547:C 7.45302e-05
31 *710:31 *8547:C 0
32 *710:42 *8547:B 0
33 *710:42 *8547:C 0
34 *710:46 *8547:B 2.75229e-05
35 *710:46 *8547:C 5.73568e-06
36 *710:46 *9077:RESET_B 7.25921e-05
37 *710:46 *733:8 1.34503e-05
38 *710:70 *8547:B 0
39 *8547:A *710:46 7.60965e-05
40 *8548:A *710:70 0
41 *8716:B2 *710:10 5.05521e-05
42 *8908:A *710:10 8.8266e-05
43 *8915:A2 *710:42 4.91189e-05
44 *8915:A3 *710:42 0
45 *8920:C *710:10 0
46 *8920:C *710:27 0
47 *8920:C *710:31 0.000160658
48 *8930:A1 *9078:CLK 7.3664e-05
49 *8951:A1 *9078:CLK 3.05295e-05
50 *9067:D *9041:CLK 4.43871e-06
51 *9067:D *710:42 0
52 *9067:D *710:70 0
53 *9067:D *710:85 0.00011741
54 *9067:D *710:111 9.05377e-05
55 *9068:D *710:46 5.83121e-06
56 *9068:D *710:70 0
57 *9068:D *710:85 0
58 *9069:D *9084:CLK 4.77719e-05
59 *9077:D *9078:CLK 5.39718e-05
60 *9084:D *9084:CLK 5.42019e-05
61 *509:6 *9119:CLK 4.66108e-05
62 *509:27 *9119:CLK 8.65961e-05
63 *509:27 *710:42 0
64 *519:14 *9119:CLK 0.0001249
65 *607:14 *9084:CLK 9.71067e-05
66 *607:48 *9084:CLK 0
67 *609:14 *9084:CLK 4.65607e-05
*RES
1 *9181:X *710:10 7.05 
2 *710:10 *9076:CLK 8.805 
3 *710:10 *710:27 5.81 
4 *710:27 *710:31 4.145 
5 *710:31 *9119:CLK 4.74 
6 *710:31 *710:42 6.225 
7 *710:42 *710:46 12.455 
8 *710:46 *9078:CLK 10.34 
9 *710:46 *9077:CLK 1.6 
10 *710:42 *710:70 4.145 
11 *710:70 *9068:CLK 1.6 
12 *710:70 *710:85 7.73 
13 *710:85 *710:89 3.14 
14 *710:89 *9069:CLK 1.6 
15 *710:89 *9084:CLK 18.65 
16 *710:85 *710:111 1.89 
17 *710:111 *9067:CLK 4.395 
18 *710:111 *9041:CLK 15.525 
19 *710:27 *9118:CLK 4.81 
*END

*D_NET *711 0.010317
*CONN
*I *9166:CLK I *D sky130_fd_sc_hd__dfstp_1
*I *9168:CLK I *D sky130_fd_sc_hd__dfstp_1
*I *9115:CLK I *D sky130_fd_sc_hd__dfstp_1
*I *9064:CLK I *D sky130_fd_sc_hd__dfstp_1
*I *9063:CLK I *D sky130_fd_sc_hd__dfstp_1
*I *9114:CLK I *D sky130_fd_sc_hd__dfstp_1
*I *9061:CLK I *D sky130_fd_sc_hd__dfrtp_1
*I *9140:CLK I *D sky130_fd_sc_hd__dfstp_1
*I *9141:CLK I *D sky130_fd_sc_hd__dfstp_1
*I *9135:CLK I *D sky130_fd_sc_hd__dfxtp_1
*I *9182:X O *D sky130_fd_sc_hd__clkbuf_8
*CAP
1 *9166:CLK 0
2 *9168:CLK 0.000226748
3 *9115:CLK 0
4 *9064:CLK 0
5 *9063:CLK 5.1926e-05
6 *9114:CLK 0.000118228
7 *9061:CLK 0.000230871
8 *9140:CLK 0
9 *9141:CLK 5.13595e-05
10 *9135:CLK 0.000168111
11 *9182:X 0
12 *711:101 0.000316772
13 *711:80 0.000383074
14 *711:78 0.000642862
15 *711:64 0.00086961
16 *711:62 0.00022185
17 *711:20 0.000477719
18 *711:16 0.000531181
19 *711:10 0.000769481
20 *711:6 0.000487528
21 *711:62 *735:625 3.81908e-06
22 *8708:B1 *711:101 0.000137241
23 *8733:A1 *9114:CLK 2.49909e-05
24 *8850:A1 *9141:CLK 9.34967e-05
25 *8905:A3 *9063:CLK 0.000163985
26 *8956:B1 *9114:CLK 0.000372922
27 *9013:A1 *711:78 0.000125257
28 *9013:A2 *711:62 5.60949e-05
29 *9013:B1 *9168:CLK 9.1566e-05
30 *9013:B1 *711:78 4.43871e-06
31 *9061:D *9061:CLK 7.00889e-06
32 *9115:D *711:78 0.00015639
33 *9135:D *9135:CLK 0
34 *9135:D *711:20 0
35 *9140:D *9061:CLK 5.85626e-05
36 *9140:D *711:16 0.000190261
37 *9140:D *711:20 0
38 *9141:D *9135:CLK 7.43256e-05
39 *234:22 *9135:CLK 0
40 *234:22 *711:20 0
41 *234:22 *711:78 0
42 *275:63 *711:101 1.14169e-05
43 *275:95 *711:101 0.000147174
44 *275:106 *9168:CLK 0.000180682
45 *275:106 *711:10 0.000283171
46 *275:106 *711:62 4.71081e-05
47 *275:106 *711:78 0.000116158
48 *352:50 *711:101 0.000114492
49 *352:60 *711:101 0.000179015
50 *510:110 *9063:CLK 6.4422e-05
51 *531:20 *711:101 1.15434e-05
52 *611:14 *711:78 6.20667e-05
53 *613:16 *711:20 0
54 *617:25 *9114:CLK 0.000355618
55 *617:25 *711:101 0.000330559
56 *619:56 *9168:CLK 0.000119115
57 *665:10 *711:10 0.000293277
58 *665:10 *711:62 7.36562e-05
59 *665:12 *711:10 9.78798e-05
60 *666:10 *9061:CLK 7.28716e-05
61 *666:10 *711:16 0.000181005
62 *666:12 *9135:CLK 0
63 *707:16 *711:78 0.000421981
64 *707:31 *711:78 4.60584e-05
*RES
1 *9182:X *711:6 3.6 
2 *711:6 *711:10 10.265 
3 *711:10 *711:16 6.09 
4 *711:16 *711:20 6.185 
5 *711:20 *9135:CLK 6.555 
6 *711:20 *9141:CLK 4.74 
7 *711:16 *9140:CLK 1.6 
8 *711:10 *9061:CLK 5.5 
9 *711:6 *711:62 5.735 
10 *711:62 *711:64 2 
11 *711:64 *711:78 14.585 
12 *711:78 *711:80 2 
13 *711:80 *9114:CLK 8.235 
14 *711:80 *711:101 9.605 
15 *711:101 *9063:CLK 7.49 
16 *711:101 *9064:CLK 1.6 
17 *711:78 *9115:CLK 1.6 
18 *711:64 *9168:CLK 8.73 
19 *711:62 *9166:CLK 1.6 
*END

*D_NET *712 0.0187682
*CONN
*I *9057:CLK I *D sky130_fd_sc_hd__dfrtp_1
*I *9059:CLK I *D sky130_fd_sc_hd__dfrtp_1
*I *9058:CLK I *D sky130_fd_sc_hd__dfrtp_1
*I *9060:CLK I *D sky130_fd_sc_hd__dfrtp_1
*I *9054:CLK I *D sky130_fd_sc_hd__dfrtp_1
*I *9082:CLK I *D sky130_fd_sc_hd__dfxtp_1
*I *9056:CLK I *D sky130_fd_sc_hd__dfrtp_2
*I *9055:CLK I *D sky130_fd_sc_hd__dfrtp_1
*I *9086:CLK I *D sky130_fd_sc_hd__dfxtp_2
*I *9052:CLK I *D sky130_fd_sc_hd__dfrtp_2
*I *9053:CLK I *D sky130_fd_sc_hd__dfrtp_1
*I *9047:CLK I *D sky130_fd_sc_hd__dfrtp_4
*I *9167:CLK I *D sky130_fd_sc_hd__dfstp_1
*I *9183:X O *D sky130_fd_sc_hd__clkbuf_8
*CAP
1 *9057:CLK 0.000196614
2 *9059:CLK 0.000104736
3 *9058:CLK 0.000190211
4 *9060:CLK 4.65609e-05
5 *9054:CLK 5.1187e-05
6 *9082:CLK 0.000469411
7 *9056:CLK 0
8 *9055:CLK 8.4689e-05
9 *9086:CLK 0.000657541
10 *9052:CLK 2.08101e-05
11 *9053:CLK 0
12 *9047:CLK 0.000209724
13 *9167:CLK 0.000515762
14 *9183:X 0
15 *712:112 0.000512525
16 *712:97 0.000439207
17 *712:77 0.000846934
18 *712:71 0.000671322
19 *712:63 0.000755121
20 *712:50 0.00114359
21 *712:27 0.00100159
22 *712:25 0.000820139
23 *712:14 0.00130066
24 *712:10 0.000362406
25 *712:8 0.000143346
26 *712:4 0.000235224
27 *9047:CLK *735:1279 3.64622e-05
28 *9082:CLK *9056:RESET_B 5.0751e-05
29 *9086:CLK *9052:RESET_B 0.000233984
30 *712:50 *745:59 0.000471308
31 *712:63 *9053:RESET_B 0.000226276
32 *8508:B *9052:CLK 0
33 *8508:B *712:77 5.39673e-05
34 *8508:C *712:77 0.000120655
35 *8608:A *9060:CLK 0
36 *8746:B1 *712:25 0.000132883
37 *8747:B1 *712:25 4.91189e-05
38 *8846:A1 *9059:CLK 0.00020613
39 *8846:A1 *712:8 0.000114492
40 *8846:A1 *712:25 0
41 *8850:A1 *9047:CLK 0.000130862
42 *8860:A0 *712:77 0.00019637
43 *8860:A1 *712:97 0
44 *8861:A *712:63 0.000199163
45 *8861:A *712:71 0.000303924
46 *8861:A *712:97 0.000115464
47 *8863:A1 *712:77 0
48 *8863:B1 *712:97 3.84331e-05
49 *8865:B1 *9060:CLK 0.000124895
50 *8866:A1 *712:71 4.87465e-06
51 *8866:A2 *712:71 8.71796e-06
52 *8866:B1 *9054:CLK 1.11031e-06
53 *8866:B2 *9054:CLK 8.73389e-06
54 *8866:B2 *712:71 1.1392e-05
55 *8867:A0 *712:71 7.06865e-05
56 *8867:A1 *712:71 0.00021011
57 *8867:A1 *712:97 0.000724587
58 *8867:A1 *712:112 0.000152134
59 *8868:A *712:63 0.00015806
60 *8873:B1 *9082:CLK 0.000130494
61 *8875:A0 *712:97 0.000158297
62 *8875:A0 *712:112 0.000160665
63 *8880:B2 *9058:CLK 8.23457e-05
64 *8881:B1 *712:25 0.000140696
65 *8886:A2 *9058:CLK 2.96426e-05
66 *8886:B1 *9058:CLK 0.000197264
67 *8886:B1 *712:14 5.85435e-05
68 *8886:B2 *9059:CLK 2.23922e-05
69 *8886:B2 *712:8 0.000116151
70 *8886:B2 *712:25 0
71 *9008:A1 *9047:CLK 0.000100536
72 *9008:A1 *712:25 0
73 *9008:A1 *712:27 0
74 *9008:A2 *712:25 0
75 *9010:A1 *9167:CLK 4.66108e-05
76 *9010:A2 *9167:CLK 3.63661e-05
77 *9010:B1 *9167:CLK 0.000119762
78 *9012:A1 *9167:CLK 0.000248661
79 *9052:D *9086:CLK 2.32597e-05
80 *9052:D *712:77 4.62268e-05
81 *9053:D *712:50 0.000204782
82 *9053:D *712:63 6.49558e-05
83 *9055:D *9055:CLK 8.34362e-05
84 *9056:D *9082:CLK 6.58339e-05
85 *9057:D *9057:CLK 2.75145e-05
86 *9057:D *9058:CLK 6.77417e-05
87 *9059:D *9058:CLK 6.07575e-06
88 *9059:D *712:14 9.66021e-05
89 *9060:D *9060:CLK 5.83121e-06
90 *9082:D *9082:CLK 0.000351834
91 *9167:D *9167:CLK 4.66108e-05
92 *59:91 *9047:CLK 0
93 *59:91 *712:25 8.98913e-05
94 *59:91 *712:27 0.000117428
95 *59:102 *712:25 5.84902e-05
96 *209:14 *712:25 6.95418e-05
97 *463:20 *9058:CLK 4.7101e-05
98 *577:26 *9060:CLK 4.21119e-05
99 *619:56 *9057:CLK 0.000132753
100 *635:6 *9086:CLK 4.99121e-05
101 *635:10 *9086:CLK 4.80291e-07
102 *635:14 *712:77 5.88334e-05
103 *636:8 *712:63 4.47209e-05
104 *636:16 *712:63 0.000196802
105 *649:27 *9059:CLK 0
106 *649:27 *9167:CLK 0.000112537
107 *649:27 *712:25 7.36562e-05
*RES
1 *9183:X *712:4 1.6 
2 *712:4 *712:8 3.38 
3 *712:8 *712:10 2 
4 *712:10 *712:14 3.48 
5 *712:14 *9167:CLK 11.02 
6 *712:14 *712:25 14.855 
7 *712:25 *712:27 3.42 
8 *712:27 *9047:CLK 8.04 
9 *712:27 *712:50 13.61 
10 *712:50 *9053:CLK 1.6 
11 *712:50 *712:63 14.44 
12 *712:63 *712:71 6.83 
13 *712:71 *712:77 5.915 
14 *712:77 *9052:CLK 1.96 
15 *712:77 *9086:CLK 9.925 
16 *712:71 *712:97 8.52 
17 *712:97 *9055:CLK 5.1 
18 *712:97 *712:112 3.89 
19 *712:112 *9056:CLK 1.6 
20 *712:112 *9082:CLK 10.675 
21 *712:63 *9054:CLK 2.41 
22 *712:25 *9060:CLK 5.1 
23 *712:10 *9058:CLK 5.86 
24 *712:8 *9059:CLK 6 
25 *712:4 *9057:CLK 5.185 
*END

*D_NET *713 0.0136813
*CONN
*I *9144:CLK I *D sky130_fd_sc_hd__dfstp_1
*I *9070:CLK I *D sky130_fd_sc_hd__dfstp_1
*I *9162:CLK I *D sky130_fd_sc_hd__dfrtp_1
*I *9160:CLK I *D sky130_fd_sc_hd__dfrtp_2
*I *9085:CLK I *D sky130_fd_sc_hd__dfxtp_2
*I *9161:CLK I *D sky130_fd_sc_hd__dfrtp_1
*I *9066:CLK I *D sky130_fd_sc_hd__dfstp_1
*I *9065:CLK I *D sky130_fd_sc_hd__dfstp_1
*I *9121:CLK I *D sky130_fd_sc_hd__dfstp_1
*I *9120:CLK I *D sky130_fd_sc_hd__dfstp_1
*I *9116:CLK I *D sky130_fd_sc_hd__dfstp_1
*I *9117:CLK I *D sky130_fd_sc_hd__dfstp_1
*I *9145:CLK I *D sky130_fd_sc_hd__dfstp_1
*I *9146:CLK I *D sky130_fd_sc_hd__dfstp_1
*I *9184:X O *D sky130_fd_sc_hd__clkbuf_8
*CAP
1 *9144:CLK 0.00013766
2 *9070:CLK 0
3 *9162:CLK 2.22864e-05
4 *9160:CLK 0.00022639
5 *9085:CLK 5.71197e-05
6 *9161:CLK 7.77903e-05
7 *9066:CLK 0
8 *9065:CLK 0
9 *9121:CLK 2.61266e-05
10 *9120:CLK 4.57327e-05
11 *9116:CLK 2.61242e-05
12 *9117:CLK 8.55461e-05
13 *9145:CLK 3.04472e-05
14 *9146:CLK 0.000296868
15 *9184:X 5.31184e-05
16 *713:162 0.000829177
17 *713:138 0.000470128
18 *713:134 0.00105149
19 *713:125 0.000248377
20 *713:112 0.000296256
21 *713:104 0.000262124
22 *713:89 0.000268883
23 *713:66 0.000329506
24 *713:55 0.000160985
25 *713:42 0.000437392
26 *713:10 0.000770483
27 *713:8 0.000297468
28 *9085:CLK *746:10 8.87475e-05
29 *713:138 *746:10 5.53249e-06
30 *713:162 *9066:SET_B 0.000119066
31 *8617:B1 *9146:CLK 9.68634e-05
32 *8630:A2 *9144:CLK 2.11084e-05
33 *8663:A *9161:CLK 0.000138799
34 *8664:A *9161:CLK 6.0011e-05
35 *8721:A1 *713:42 0.000729862
36 *8728:B2 *9117:CLK 0.000170137
37 *8728:B2 *713:55 3.72899e-05
38 *8728:B2 *713:66 0.000276546
39 *8911:A3 *9117:CLK 0.000100051
40 *8911:A3 *9120:CLK 3.14383e-05
41 *8911:A3 *713:55 3.14002e-05
42 *8911:A3 *713:66 0.000298318
43 *8911:A3 *713:89 1.61391e-05
44 *8911:A3 *713:104 0
45 *8911:A3 *713:112 0.000119391
46 *8911:A3 *713:125 0.000182349
47 *8919:A3 *713:89 2.97561e-05
48 *8919:A3 *713:104 3.69334e-05
49 *8919:A3 *713:112 5.83121e-06
50 *8919:B2 *713:112 4.43682e-05
51 *8961:B1 *9120:CLK 2.65522e-05
52 *8962:B1 *9121:CLK 3.54536e-05
53 *9007:A1 *713:8 0.000234685
54 *9007:A1 *713:10 0.000154816
55 *9007:A2 *9145:CLK 2.89963e-05
56 *9007:B1 *9145:CLK 6.33239e-05
57 *9066:D *713:134 0.000108785
58 *9066:D *713:138 2.46089e-05
59 *9070:D *713:112 8.41921e-05
60 *9085:D *9085:CLK 0.000139245
61 *9085:D *713:89 8.7782e-05
62 *9085:D *713:104 8.37714e-05
63 *9085:D *713:112 0
64 *9085:D *713:125 0
65 *9085:D *713:138 0.000664091
66 *9120:D *713:66 1.197e-05
67 *9120:D *713:89 1.92979e-05
68 *9146:D *9146:CLK 9.80917e-05
69 *9146:D *713:10 7.83475e-05
70 *234:22 *9144:CLK 4.40899e-05
71 *234:22 *713:10 4.62396e-05
72 *234:102 *9160:CLK 4.92014e-05
73 *510:108 *9116:CLK 4.66108e-05
74 *519:14 *9120:CLK 6.03463e-06
75 *519:14 *713:89 6.02202e-05
76 *531:106 *9121:CLK 4.00541e-06
77 *605:66 *9160:CLK 0.000161837
78 *606:52 *9160:CLK 4.9968e-05
79 *606:52 *9162:CLK 5.83121e-06
80 *608:33 *9162:CLK 3.57349e-05
81 *608:33 *713:125 4.82919e-05
82 *608:33 *713:134 1.12578e-05
83 *608:33 *713:162 0.000570022
84 *614:56 *713:8 0.000134947
85 *615:70 *713:42 0.00126733
86 *644:90 *9121:CLK 4.82919e-05
*RES
1 *9184:X *713:8 5.775 
2 *713:8 *713:10 2.5275 
3 *713:10 *9146:CLK 7.6425 
4 *713:10 *9145:CLK 4.41 
5 *713:10 *713:42 2.90253 
6 *713:42 *9117:CLK 6.0675 
7 *713:42 *713:55 0.4875 
8 *713:55 *9116:CLK 4.05 
9 *713:55 *713:66 3.8025 
10 *713:66 *9120:CLK 4.8975 
11 *713:66 *713:89 3.6825 
12 *713:89 *9121:CLK 4.41 
13 *713:89 *713:104 3.89 
14 *713:104 *713:112 5.735 
15 *713:112 *9065:CLK 3.6 
16 *713:112 *713:125 4.595 
17 *713:125 *9066:CLK 1.6 
18 *713:125 *713:134 2.1 
19 *713:134 *713:138 9.755 
20 *713:138 *9161:CLK 5.775 
21 *713:138 *9085:CLK 5.49 
22 *713:134 *713:162 9.45 
23 *713:162 *9160:CLK 10.265 
24 *713:162 *9162:CLK 2.05 
25 *713:104 *9070:CLK 1.6 
26 *713:8 *9144:CLK 6.045 
*END

*D_NET *714 0.0206339
*CONN
*I *9154:CLK I *D sky130_fd_sc_hd__dfrtp_4
*I *9083:CLK I *D sky130_fd_sc_hd__dfxtp_1
*I *9155:CLK I *D sky130_fd_sc_hd__dfrtp_2
*I *9156:CLK I *D sky130_fd_sc_hd__dfrtp_1
*I *9157:CLK I *D sky130_fd_sc_hd__dfrtp_1
*I *9159:CLK I *D sky130_fd_sc_hd__dfrtp_1
*I *9158:CLK I *D sky130_fd_sc_hd__dfrtp_1
*I *9152:CLK I *D sky130_fd_sc_hd__dfrtp_1
*I *9147:CLK I *D sky130_fd_sc_hd__dfrtp_4
*I *9153:CLK I *D sky130_fd_sc_hd__dfrtp_1
*I *9151:CLK I *D sky130_fd_sc_hd__dfrtp_4
*I *9150:CLK I *D sky130_fd_sc_hd__dfrtp_2
*I *9149:CLK I *D sky130_fd_sc_hd__dfrtp_2
*I *9148:CLK I *D sky130_fd_sc_hd__dfrtp_4
*I *9139:CLK I *D sky130_fd_sc_hd__dfstp_1
*I *9185:X O *D sky130_fd_sc_hd__clkbuf_8
*CAP
1 *9154:CLK 0
2 *9083:CLK 0.000626132
3 *9155:CLK 0
4 *9156:CLK 5.06406e-05
5 *9157:CLK 0
6 *9159:CLK 0
7 *9158:CLK 0.000420776
8 *9152:CLK 9.71884e-06
9 *9147:CLK 0
10 *9153:CLK 0.00032084
11 *9151:CLK 3.93004e-05
12 *9150:CLK 3.38389e-05
13 *9149:CLK 0
14 *9148:CLK 0
15 *9139:CLK 0.00108502
16 *9185:X 0
17 *714:171 0.000807075
18 *714:158 0.000692676
19 *714:145 0.000620929
20 *714:138 0.000174809
21 *714:118 0.000707378
22 *714:116 0.00099173
23 *714:95 0.00103262
24 *714:84 0.000534795
25 *714:62 0.000579694
26 *714:51 0.000552873
27 *714:36 0.000913671
28 *714:29 0.00101795
29 *714:10 0.00158264
30 *714:4 0.000194632
31 *9153:CLK *735:1514 3.64998e-06
32 *9156:CLK *745:61 9.24127e-05
33 *714:36 *9148:RESET_B 3.77915e-05
34 *714:95 *745:61 0.000145811
35 *714:116 *745:61 1.44259e-05
36 *714:118 *9159:RESET_B 2.91561e-06
37 *714:138 *9159:RESET_B 0.000126584
38 *714:145 *9159:RESET_B 5.70345e-05
39 *714:158 *9159:RESET_B 2.96334e-05
40 *714:158 *735:1576 5.02604e-05
41 *714:171 *735:1542 0
42 *714:171 *735:1553 0
43 *8607:A_N *714:116 0.000113797
44 *8617:B1 *714:29 0.000169652
45 *8617:C1 *714:95 7.22182e-05
46 *8619:A1 *9150:CLK 4.00541e-06
47 *8619:A1 *714:62 1.56428e-05
48 *8619:B2 *9150:CLK 0
49 *8620:B *9153:CLK 0.000159964
50 *8620:C *9153:CLK 0.000172575
51 *8625:A1 *714:36 9.29176e-05
52 *8625:A1 *714:51 1.61387e-05
53 *8625:A2 *9151:CLK 0.00011379
54 *8625:A2 *9153:CLK 0.000177561
55 *8625:A3 *9151:CLK 0.00011379
56 *8625:A3 *9153:CLK 0.000123242
57 *8630:A3 *714:116 9.14049e-05
58 *8630:C1 *9152:CLK 4.82919e-05
59 *8631:C *9153:CLK 8.80195e-06
60 *8633:B1 *714:51 0.000243532
61 *8637:A *714:158 2.49909e-05
62 *8637:B *714:158 5.05521e-05
63 *8640:A1 *714:171 3.25831e-05
64 *8640:B2 *9083:CLK 0.000137097
65 *8640:B2 *714:171 0
66 *8642:B1 *714:116 1.95461e-05
67 *8644:B *714:116 0.000147127
68 *8649:A1 *714:116 0.00015995
69 *8651:A2 *714:116 1.01276e-05
70 *8653:A1 *714:116 0.00016493
71 *8653:B2 *714:116 1.43729e-05
72 *8748:A1 *714:29 1.08758e-05
73 *8846:A1 *9139:CLK 0
74 *8846:A1 *714:10 0
75 *8875:A1 *9153:CLK 0
76 *8880:A1 *714:95 0.000526291
77 *8880:A1 *714:116 0.000132218
78 *8886:A1 *9139:CLK 0.000158297
79 *8886:A1 *714:10 3.11859e-05
80 *8889:A *714:116 0.000483557
81 *9083:D *9083:CLK 0.000182563
82 *9139:D *9139:CLK 1.83847e-05
83 *9147:D *714:84 7.00889e-06
84 *9147:D *714:95 6.97118e-05
85 *9148:D *714:36 6.97034e-05
86 *9149:D *714:51 0.000270196
87 *9152:D *9152:CLK 4.82919e-05
88 *9154:D *9083:CLK 0.000129905
89 *9154:D *714:171 3.05295e-05
90 *9155:D *714:171 0.000118063
91 *9157:D *9156:CLK 5.23362e-05
92 *9157:D *714:145 8.53856e-06
93 *9157:D *714:158 2.49909e-05
94 *9159:D *714:116 4.61256e-05
95 *9159:D *714:118 0.000210748
96 *279:18 *9153:CLK 9.4087e-05
97 *279:22 *9153:CLK 5.83121e-06
98 *281:24 *9153:CLK 1.15146e-05
99 *281:30 *9153:CLK 1.70906e-05
100 *291:58 *9083:CLK 0
101 *307:10 *714:158 1.83847e-05
102 *311:10 *714:116 5.33085e-05
103 *574:18 *9139:CLK 0.000365841
104 *608:35 *714:10 6.06649e-05
105 *609:58 *9158:CLK 0.000234777
106 *612:42 *714:84 9.70988e-05
107 *651:71 *9153:CLK 7.23602e-05
108 *652:8 *714:158 6.05513e-05
109 *652:52 *9156:CLK 6.10941e-05
110 *652:52 *714:158 0.000200156
111 *652:58 *714:116 2.75794e-05
112 *655:47 *714:116 0.000105833
113 *656:6 *714:36 4.82863e-05
114 *658:23 *9153:CLK 0.000126679
115 *662:18 *9083:CLK 0.000152938
116 *663:16 *714:158 0.000115484
117 *663:16 *714:171 2.59835e-05
*RES
1 *9185:X *714:4 1.6 
2 *714:4 *714:10 3.74 
3 *714:10 *9139:CLK 17.595 
4 *714:10 *714:29 8.33 
5 *714:29 *9148:CLK 1.6 
6 *714:29 *714:36 10.11 
7 *714:36 *9149:CLK 1.6 
8 *714:36 *714:51 9.355 
9 *714:51 *9150:CLK 2.215 
10 *714:51 *714:62 4.175 
11 *714:62 *9151:CLK 4.98 
12 *714:62 *9153:CLK 11.82 
13 *714:4 *714:84 2.175 
14 *714:84 *9147:CLK 1.6 
15 *714:84 *714:95 11.78 
16 *714:95 *9152:CLK 4.05 
17 *714:95 *714:116 20.19 
18 *714:116 *714:118 5.625 
19 *714:118 *9158:CLK 13.34 
20 *714:118 *9159:CLK 1.6 
21 *714:116 *714:138 2.175 
22 *714:138 *9157:CLK 1.6 
23 *714:138 *714:145 1.14 
24 *714:145 *9156:CLK 7.49 
25 *714:145 *714:158 10.455 
26 *714:158 *9155:CLK 1.6 
27 *714:158 *714:171 7.54 
28 *714:171 *9083:CLK 17.12 
29 *714:171 *9154:CLK 1.6 
*END

*D_NET *715 0.0111177
*CONN
*I *9134:CLK I *D sky130_fd_sc_hd__dfrtp_4
*I *9143:CLK I *D sky130_fd_sc_hd__dfrtp_1
*I *9176:CLK I *D sky130_fd_sc_hd__dfrtp_1
*I *9030:CLK I *D sky130_fd_sc_hd__dfrtp_4
*I *9031:CLK I *D sky130_fd_sc_hd__dfrtp_4
*I *9028:CLK I *D sky130_fd_sc_hd__dfrtp_4
*I *9026:CLK I *D sky130_fd_sc_hd__dfrtp_4
*I *9027:CLK I *D sky130_fd_sc_hd__dfrtp_4
*I *9025:CLK I *D sky130_fd_sc_hd__dfrtp_2
*I *9186:X O *D sky130_fd_sc_hd__clkbuf_8
*CAP
1 *9134:CLK 0.000228611
2 *9143:CLK 4.90893e-05
3 *9176:CLK 0.000104314
4 *9030:CLK 3.37454e-05
5 *9031:CLK 0.000249083
6 *9028:CLK 3.07736e-05
7 *9026:CLK 0.000215738
8 *9027:CLK 0.000133462
9 *9025:CLK 0
10 *9186:X 0
11 *715:101 0.000383833
12 *715:88 0.000378837
13 *715:35 0.000973312
14 *715:22 0.000901266
15 *715:18 0.000706995
16 *715:16 0.000785314
17 *715:14 0.000685058
18 *715:4 0.00068254
19 *9026:CLK *9026:RESET_B 1.16578e-05
20 *9026:CLK *735:27 0.000577239
21 *9027:CLK *735:27 0
22 *9134:CLK *735:290 0
23 *715:18 *9024:RESET_B 0.000129728
24 *715:18 *9031:RESET_B 0
25 *715:22 *9024:RESET_B 0.000185405
26 *715:35 *9025:RESET_B 2.40101e-05
27 *715:35 *735:27 0
28 *715:35 *735:41 0
29 *715:88 *9030:RESET_B 0
30 *715:101 *735:290 0
31 *715:101 *735:292 0
32 *8807:B *9134:CLK 1.52184e-05
33 *8814:A1_N *715:35 0
34 *8817:B2 *9031:CLK 0.000139066
35 *8817:B2 *715:14 0
36 *8817:B2 *715:16 0
37 *8818:A1_N *715:18 4.92412e-05
38 *8830:A1_N *9031:CLK 4.43682e-05
39 *8830:A1_N *715:18 0
40 *9000:B_N *9134:CLK 0
41 *9001:A1 *9134:CLK 8.65961e-05
42 *9001:A2 *9134:CLK 8.82557e-05
43 *9001:B1 *9143:CLK 6.97034e-05
44 *9001:C1 *9134:CLK 0.000277223
45 *9025:D *715:22 0
46 *9025:D *715:35 0.00010238
47 *9027:D *9027:CLK 0
48 *9027:D *715:35 0
49 *9030:D *715:16 0
50 *9031:D *9031:CLK 0.000201303
51 *9031:D *715:18 0.000249914
52 *9143:D *9134:CLK 0.000107634
53 *9143:D *9143:CLK 2.49909e-05
54 *9143:D *715:101 5.23362e-05
55 *9176:D *9176:CLK 6.92504e-05
56 *9186:A *715:14 1.89685e-05
57 *9186:A *715:88 0
58 *431:20 *715:35 0
59 *431:30 *715:22 0
60 *431:30 *715:35 0.000222122
61 *431:38 *715:22 0
62 *431:44 *715:18 0.000538172
63 *431:44 *715:22 0.000185405
64 *446:18 *9176:CLK 1.03323e-05
65 *448:18 *715:14 0.000276441
66 *452:48 *715:35 0.00043044
67 *591:22 *715:18 0
68 *599:35 *9031:CLK 1.67639e-05
69 *599:35 *715:16 1.22676e-05
70 *599:35 *715:18 1.94723e-05
71 *603:37 *9028:CLK 1.56428e-05
72 *620:96 *9134:CLK 0.000324225
73 *707:157 *715:88 0
74 *707:157 *715:101 0
*RES
1 *9186:X *715:4 1.6 
2 *715:4 *715:14 11.555 
3 *715:14 *715:16 2.145 
4 *715:16 *715:18 10.305 
5 *715:18 *715:22 7.97 
6 *715:22 *9025:CLK 1.6 
7 *715:22 *715:35 15.275 
8 *715:35 *9027:CLK 5.745 
9 *715:35 *9026:CLK 8.88 
10 *715:18 *9028:CLK 4.05 
11 *715:16 *9031:CLK 9.345 
12 *715:14 *9030:CLK 4.05 
13 *715:4 *715:88 4.4 
14 *715:88 *9176:CLK 5.445 
15 *715:88 *715:101 1.89 
16 *715:101 *9143:CLK 4.74 
17 *715:101 *9134:CLK 10.425 
*END

*D_NET *716 0.0109985
*CONN
*I *9110:CLK I *D sky130_fd_sc_hd__dfrtp_4
*I *9111:CLK I *D sky130_fd_sc_hd__dfrtp_2
*I *9174:CLK I *D sky130_fd_sc_hd__dfrtp_1
*I *9175:CLK I *D sky130_fd_sc_hd__dfrtp_1
*I *9170:CLK I *D sky130_fd_sc_hd__dfrtp_4
*I *9094:CLK I *D sky130_fd_sc_hd__dfrtp_4
*I *9172:CLK I *D sky130_fd_sc_hd__dfrtp_2
*I *9187:X O *D sky130_fd_sc_hd__clkbuf_8
*CAP
1 *9110:CLK 0.000158358
2 *9111:CLK 0
3 *9174:CLK 0
4 *9175:CLK 5.63644e-05
5 *9170:CLK 0.000408289
6 *9094:CLK 0.000371681
7 *9172:CLK 0.000248889
8 *9187:X 0.000547707
9 *716:83 0.000270975
10 *716:45 0.00077997
11 *716:34 0.000734112
12 *716:24 0.00137081
13 *716:14 0.00125625
14 *716:10 0.00108735
15 *9094:CLK *763:10 0
16 *9094:CLK *764:14 0.000436615
17 *9110:CLK *735:342 0
18 *9110:CLK *735:349 0
19 *9170:CLK *763:10 0
20 *9170:CLK *764:14 0.000134523
21 *9172:CLK *736:12 1.5186e-05
22 *716:14 *9174:RESET_B 0.000219351
23 *716:14 *735:254 0.000614456
24 *716:24 *9174:RESET_B 6.69341e-05
25 *716:24 *9175:RESET_B 4.54654e-05
26 *716:34 *9172:RESET_B 8.07616e-05
27 *716:34 *763:10 0
28 *716:83 *735:342 0
29 *8499:A *716:10 0
30 *8499:B *716:10 0.000136877
31 *8502:B *716:10 6.1265e-05
32 *8952:A1 *9110:CLK 8.65905e-05
33 *8953:B2 *9110:CLK 0
34 *8953:B2 *716:10 0
35 *8953:B2 *716:83 0
36 *9020:A *716:24 0
37 *9021:A1 *716:24 5.53249e-06
38 *9110:D *9110:CLK 5.05437e-05
39 *9111:D *9110:CLK 0
40 *9170:D *9170:CLK 0.000111901
41 *9172:D *9172:CLK 5.85534e-05
42 *9172:D *716:34 0.000184655
43 *9174:D *716:24 0
44 *9187:A *716:10 0.000160491
45 *220:31 *716:24 0
46 *671:41 *716:10 3.83041e-05
47 *671:47 *716:10 0.000234685
48 *671:71 *716:10 0
49 *683:28 *716:24 0
50 *683:45 *716:24 0
51 *684:8 *716:34 1.03323e-05
52 *684:16 *716:34 0.000162325
53 *684:51 *716:34 2.14129e-05
54 *700:8 *716:24 0
55 *701:10 *716:14 0.000214272
56 *702:66 *716:10 0
57 *702:74 *716:10 0
58 *704:10 *716:10 0
59 *704:67 *716:10 0.000487472
60 *706:28 *716:10 6.92175e-05
*RES
1 *9187:X *716:10 16.17 
2 *716:10 *716:14 12.8 
3 *716:14 *716:24 14.785 
4 *716:24 *716:34 11.185 
5 *716:34 *9172:CLK 4.735 
6 *716:34 *716:45 2 
7 *716:45 *9094:CLK 12.375 
8 *716:45 *9170:CLK 9.99 
9 *716:24 *9175:CLK 2.665 
10 *716:14 *9174:CLK 1.6 
11 *716:10 *716:83 1.89 
12 *716:83 *9111:CLK 3.6 
13 *716:83 *9110:CLK 6.645 
*END

*D_NET *717 0.00912022
*CONN
*I *9098:CLK I *D sky130_fd_sc_hd__dfrtp_1
*I *9045:CLK I *D sky130_fd_sc_hd__dfrtp_1
*I *9044:CLK I *D sky130_fd_sc_hd__dfrtp_1
*I *9042:CLK I *D sky130_fd_sc_hd__dfrtp_1
*I *9043:CLK I *D sky130_fd_sc_hd__dfrtp_1
*I *9173:CLK I *D sky130_fd_sc_hd__dfrtp_1
*I *9177:CLK I *D sky130_fd_sc_hd__dfrtp_4
*I *9092:CLK I *D sky130_fd_sc_hd__dfstp_2
*I *9188:X O *D sky130_fd_sc_hd__clkbuf_8
*CAP
1 *9098:CLK 0.000411859
2 *9045:CLK 0
3 *9044:CLK 0
4 *9042:CLK 2.00697e-05
5 *9043:CLK 0.000168763
6 *9173:CLK 4.26668e-05
7 *9177:CLK 2.2266e-05
8 *9092:CLK 9.30882e-05
9 *9188:X 0.000155762
10 *717:98 0.000553788
11 *717:67 0.000580646
12 *717:53 0.000569178
13 *717:45 0.000396623
14 *717:32 0.000172842
15 *717:21 0.00015775
16 *717:10 0.000331489
17 *9042:CLK *9134:RESET_B 3.77879e-05
18 *9098:CLK *8547:C 2.34423e-05
19 *9098:CLK *8551:B 2.16917e-05
20 *9098:CLK *8552:A3 8.49205e-05
21 *9098:CLK *9045:RESET_B 1.23706e-05
22 *9098:CLK *734:10 4.75576e-05
23 *9098:CLK *735:258 6.02055e-05
24 *9098:CLK *735:264 7.70304e-07
25 *717:67 *9134:RESET_B 7.83084e-05
26 *717:67 *735:268 0.000106862
27 *717:67 *735:270 3.38982e-05
28 *8552:B1 *9098:CLK 3.70572e-05
29 *8554:A1 *717:67 3.09164e-05
30 *8554:A2 *717:67 7.30547e-05
31 *8554:A2 *717:98 7.47284e-05
32 *8554:B1 *717:53 3.74161e-05
33 *8555:A *717:67 4.21666e-05
34 *8555:B *717:67 0.000279787
35 *8556:A *9043:CLK 7.23602e-05
36 *8556:A *717:67 8.06286e-05
37 *8676:C *9092:CLK 5.83121e-06
38 *8677:A *9092:CLK 7.81632e-05
39 *8677:A *717:10 4.20983e-05
40 *8677:A *717:21 9.60047e-05
41 *8677:A *717:32 7.44375e-05
42 *8677:A *717:45 0.000109449
43 *8677:A *717:53 0.000197264
44 *8677:A *717:98 1.15688e-05
45 *8807:A *717:10 8.70923e-05
46 *8807:A *717:21 9.61052e-05
47 *8807:A *717:32 7.07722e-05
48 *8807:A *717:45 0.000106893
49 *8807:A *717:98 6.9779e-05
50 *8947:B2 *9098:CLK 9.50342e-06
51 *9022:B1 *717:53 0.000572609
52 *9023:B1 *9173:CLK 8.49205e-05
53 *9042:D *717:67 0
54 *9043:D *9043:CLK 8.52883e-05
55 *9044:D *717:53 7.69801e-05
56 *9045:D *9098:CLK 2.75145e-05
57 *9092:D *9092:CLK 4.66108e-05
58 *9173:D *9173:CLK 4.80285e-05
59 *189:74 *9092:CLK 0.000147705
60 *190:26 *9177:CLK 4.82919e-05
61 *239:20 *717:53 0.000215073
62 *239:20 *717:98 0.000539846
63 *239:36 *717:53 0.000109172
64 *239:50 *9043:CLK 0
65 *581:42 *717:10 0.00011964
66 *671:14 *717:10 0.00042877
67 *677:90 *9098:CLK 0.000139238
68 *702:35 *717:98 0.000362285
69 *705:14 *9098:CLK 0
70 *707:151 *717:10 4.70919e-05
71 *707:153 *717:10 5.34747e-05
*RES
1 *9188:X *717:10 9.39 
2 *717:10 *9092:CLK 6.12 
3 *717:10 *717:21 2.145 
4 *717:21 *9177:CLK 4.05 
5 *717:21 *717:32 1.635 
6 *717:32 *9173:CLK 4.755 
7 *717:32 *717:45 2.4 
8 *717:45 *717:53 9.125 
9 *717:53 *717:67 12.745 
10 *717:67 *9043:CLK 8.39 
11 *717:67 *9042:CLK 2.05 
12 *717:53 *9044:CLK 1.6 
13 *717:45 *717:98 8.48 
14 *717:98 *9045:CLK 1.6 
15 *717:98 *9098:CLK 12.215 
*END

*D_NET *718 0.0103191
*CONN
*I *9132:CLK I *D sky130_fd_sc_hd__dfstp_2
*I *9040:CLK I *D sky130_fd_sc_hd__dfrtp_1
*I *9034:CLK I *D sky130_fd_sc_hd__dfrtp_2
*I *9032:CLK I *D sky130_fd_sc_hd__dfrtp_1
*I *9079:CLK I *D sky130_fd_sc_hd__dfxtp_1
*I *9189:X O *D sky130_fd_sc_hd__clkbuf_8
*CAP
1 *9132:CLK 0.000622566
2 *9040:CLK 0.000207189
3 *9034:CLK 5.95258e-05
4 *9032:CLK 0
5 *9079:CLK 0.000215316
6 *9189:X 0.000103027
7 *718:49 0.000935457
8 *718:16 0.000904803
9 *718:10 0.00187297
10 *718:8 0.00133268
11 *9034:CLK *9034:RESET_B 1.4389e-05
12 *9079:CLK *9032:RESET_B 4.82919e-05
13 *9079:CLK *761:16 2.53024e-05
14 *9132:CLK *8989:A_N 2.87867e-05
15 *718:16 *9032:RESET_B 0.000174933
16 *8580:A *718:10 0.000201407
17 *8591:C *9132:CLK 0
18 *8592:A2 *9132:CLK 0.000277482
19 *8756:B *718:10 5.92191e-05
20 *8756:C_N *718:10 5.16348e-05
21 *8810:C *9132:CLK 8.78735e-05
22 *8832:B *718:10 9.04415e-05
23 *8833:B1 *718:10 0
24 *8834:A2_N *9040:CLK 9.51192e-05
25 *8834:A2_N *718:49 3.67779e-05
26 *8834:B1 *9040:CLK 3.00381e-05
27 *8990:A *9132:CLK 0
28 *8996:A2_N *9132:CLK 0
29 *9032:D *9079:CLK 7.00889e-06
30 *9032:D *718:16 6.74794e-05
31 *9034:D *9034:CLK 1.85674e-05
32 *9034:D *718:10 7.23533e-05
33 *9034:D *718:16 9.50342e-06
34 *9035:D *718:10 0
35 *9040:D *9040:CLK 0.00012657
36 *9079:D *9079:CLK 0.000286741
37 *9132:D *9132:CLK 8.49205e-05
38 *9189:A *9132:CLK 0
39 *9189:A *718:49 0
40 *243:12 *718:8 0.000117116
41 *247:28 *718:10 0.000180675
42 *259:16 *718:10 0.000172352
43 *260:45 *718:10 0
44 *260:49 *718:10 0
45 *261:18 *718:10 0.000264257
46 *261:83 *718:10 0.000529428
47 *261:97 *718:10 0.000381066
48 *261:97 *718:49 1.1561e-05
49 *395:18 *718:10 1.07797e-05
50 *419:10 *718:10 0
51 *430:22 *9132:CLK 0
52 *430:22 *718:49 0
53 *430:26 *718:10 0
54 *430:26 *718:49 0
55 *430:28 *718:10 0
56 *430:36 *718:10 0
57 *430:46 *718:10 0
58 *430:56 *718:10 0.000112097
59 *439:12 *718:10 3.86529e-05
60 *596:16 *9079:CLK 0
61 *602:14 *718:16 0.000275629
62 *620:10 *9132:CLK 7.71016e-05
*RES
1 *9189:X *718:8 5.43 
2 *718:8 *718:10 24.33 
3 *718:10 *718:16 14.765 
4 *718:16 *9079:CLK 10.235 
5 *718:16 *9032:CLK 1.6 
6 *718:10 *9034:CLK 4.77 
7 *718:8 *718:49 1.89 
8 *718:49 *9040:CLK 7.845 
9 *718:49 *9132:CLK 15.66 
*END

*D_NET *719 0.0101782
*CONN
*I *9133:CLK I *D sky130_fd_sc_hd__dfrtp_1
*I *9080:CLK I *D sky130_fd_sc_hd__dfxtp_1
*I *9038:CLK I *D sky130_fd_sc_hd__dfrtp_2
*I *9039:CLK I *D sky130_fd_sc_hd__dfrtp_2
*I *9036:CLK I *D sky130_fd_sc_hd__dfrtp_2
*I *9035:CLK I *D sky130_fd_sc_hd__dfrtp_2
*I *9190:X O *D sky130_fd_sc_hd__clkbuf_8
*CAP
1 *9133:CLK 0.000299413
2 *9080:CLK 0.00122197
3 *9038:CLK 2.24758e-05
4 *9039:CLK 5.86561e-05
5 *9036:CLK 0
6 *9035:CLK 0.000392507
7 *9190:X 0.000292142
8 *719:16 0.000743354
9 *719:14 0.000479834
10 *719:12 0.000194234
11 *719:10 0.00160188
12 *719:8 0.000870037
13 *9035:CLK *9035:RESET_B 7.00889e-06
14 *9035:CLK *735:1067 9.91257e-05
15 *9035:CLK *757:22 0
16 *9133:CLK *8659:B 6.23375e-05
17 *719:10 *8659:B 2.75167e-05
18 *719:10 *757:22 0
19 *719:12 *757:22 0
20 *719:14 *757:22 0
21 *719:16 *757:22 0
22 *8577:A *719:10 2.09842e-05
23 *8577:A *719:12 1.02346e-05
24 *8591:C *9133:CLK 0
25 *8774:A *9080:CLK 8.8266e-05
26 *8823:A2_N *9035:CLK 5.05437e-05
27 *8825:A *9035:CLK 0.00011379
28 *8825:B *9035:CLK 5.42477e-05
29 *8828:B1 *9035:CLK 0.000141599
30 *8996:B1 *719:10 5.21458e-05
31 *9035:D *9035:CLK 6.74794e-05
32 *9038:D *9038:CLK 0.0001249
33 *9039:D *9039:CLK 3.87237e-05
34 *9080:D *9080:CLK 9.66106e-05
35 *9133:D *9133:CLK 0
36 *9190:A *719:8 4.66108e-05
37 *244:14 *9035:CLK 0.000362264
38 *244:14 *719:16 0.000187759
39 *247:14 *719:16 0.000277029
40 *260:18 *9080:CLK 0.000197269
41 *416:6 *9080:CLK 0.000154828
42 *451:32 *719:10 0.000221419
43 *451:32 *719:12 1.7306e-05
44 *451:34 *719:12 2.04724e-05
45 *452:14 *9035:CLK 9.60974e-05
46 *452:14 *719:12 0.000108322
47 *452:14 *719:14 0.000131408
48 *452:14 *719:16 0.000360603
49 *455:10 *9035:CLK 2.03321e-05
50 *571:28 *9080:CLK 0.000413266
51 *588:21 *9035:CLK 0
52 *589:49 *9035:CLK 0.000100536
53 *592:6 *9038:CLK 7.35813e-05
54 *594:10 *719:10 0
55 *667:8 *9133:CLK 0.000157119
*RES
1 *9190:X *719:8 7.5 
2 *719:8 *719:10 6.48 
3 *719:10 *719:12 2.145 
4 *719:12 *719:14 1.635 
5 *719:14 *719:16 8.775 
6 *719:16 *9035:CLK 14.385 
7 *719:16 *9036:CLK 3.6 
8 *719:14 *9039:CLK 4.665 
9 *719:12 *9038:CLK 4.74 
10 *719:10 *9080:CLK 24.06 
11 *719:8 *9133:CLK 9.39 
*END

*D_NET *720 0.00782258
*CONN
*I *9046:CLK I *D sky130_fd_sc_hd__dfrtp_4
*I *9142:CLK I *D sky130_fd_sc_hd__dfstp_1
*I *9137:CLK I *D sky130_fd_sc_hd__dfrtp_1
*I *9136:CLK I *D sky130_fd_sc_hd__dfrtp_1
*I *9138:CLK I *D sky130_fd_sc_hd__dfrtp_1
*I *9164:CLK I *D sky130_fd_sc_hd__dfrtp_1
*I *9131:CLK I *D sky130_fd_sc_hd__dfstp_2
*I *9191:X O *D sky130_fd_sc_hd__clkbuf_8
*CAP
1 *9046:CLK 0.000358256
2 *9142:CLK 1.65033e-05
3 *9137:CLK 0
4 *9136:CLK 0
5 *9138:CLK 9.84095e-05
6 *9164:CLK 0.000273179
7 *9131:CLK 7.67361e-05
8 *9191:X 0.000127418
9 *720:71 0.000439194
10 *720:46 0.000286422
11 *720:36 0.000392642
12 *720:32 0.000438917
13 *720:21 0.000519238
14 *720:8 0.00028036
15 *9138:CLK *8729:A 0.000141599
16 *9142:CLK *9137:RESET_B 4.66108e-05
17 *9164:CLK *8739:A 0.000162311
18 *720:36 *9137:RESET_B 0.000117787
19 *720:36 *735:1187 4.11729e-05
20 *720:46 *759:18 0
21 *720:46 *761:28 0.000147859
22 *8555:A *720:8 0.000184866
23 *8557:A *9138:CLK 0
24 *8558:A *720:46 0
25 *8591:A_N *720:21 0
26 *8591:A_N *720:32 0
27 *8593:B *9138:CLK 0.000119277
28 *8594:A2 *720:32 7.23533e-05
29 *8594:B1 *720:36 1.56428e-05
30 *8594:B1 *720:46 9.37731e-05
31 *8596:B_N *9046:CLK 9.66021e-05
32 *8596:C *9046:CLK 4.82863e-05
33 *8597:A *9142:CLK 2.49909e-05
34 *8598:A_N *9046:CLK 0.000185344
35 *8598:A_N *720:71 8.70923e-05
36 *8598:C *720:71 0
37 *8740:B *9164:CLK 5.97713e-05
38 *8741:A2 *9164:CLK 7.60965e-05
39 *8742:B *9046:CLK 0.000123225
40 *8743:A *9046:CLK 0.000124007
41 *8986:A1 *9131:CLK 6.23375e-05
42 *8986:A1 *9164:CLK 7.8192e-05
43 *8986:A1 *720:21 5.42646e-05
44 *9136:D *720:46 2.75229e-05
45 *9137:D *720:32 1.07797e-05
46 *9137:D *720:36 0.000206914
47 *9142:D *9046:CLK 6.52265e-05
48 *9191:A *720:8 5.83121e-06
49 *237:71 *720:36 0.000462975
50 *275:121 *9046:CLK 0.000414543
51 *665:30 *9046:CLK 6.53158e-05
52 *666:14 *720:32 0
53 *707:132 *9046:CLK 0.000176873
54 *707:132 *720:21 0.000164686
55 *707:132 *720:32 0.000348746
56 *707:132 *720:71 0.000172845
57 *707:134 *9131:CLK 0.000163985
58 *707:134 *720:21 4.44927e-05
59 *707:221 *9131:CLK 2.11084e-05
*RES
1 *9191:X *720:8 6.465 
2 *720:8 *9131:CLK 5.94 
3 *720:8 *720:21 2.4 
4 *720:21 *9164:CLK 9.225 
5 *720:21 *720:32 4.185 
6 *720:32 *720:36 9.005 
7 *720:36 *720:46 7.735 
8 *720:46 *9138:CLK 8.45 
9 *720:46 *9136:CLK 1.6 
10 *720:36 *9137:CLK 1.6 
11 *720:32 *720:71 2.145 
12 *720:71 *9142:CLK 4.05 
13 *720:71 *9046:CLK 13.785 
*END

*D_NET *721 0.0105624
*CONN
*I *9081:CLK I *D sky130_fd_sc_hd__dfxtp_1
*I *9051:CLK I *D sky130_fd_sc_hd__dfrtp_1
*I *9050:CLK I *D sky130_fd_sc_hd__dfrtp_1
*I *9048:CLK I *D sky130_fd_sc_hd__dfrtp_4
*I *9049:CLK I *D sky130_fd_sc_hd__dfrtp_1
*I *9169:CLK I *D sky130_fd_sc_hd__dfrtp_1
*I *9165:CLK I *D sky130_fd_sc_hd__dfstp_2
*I *9113:CLK I *D sky130_fd_sc_hd__dfxtp_1
*I *9163:CLK I *D sky130_fd_sc_hd__dfrtp_1
*I *9192:X O *D sky130_fd_sc_hd__clkbuf_8
*CAP
1 *9081:CLK 0.000851935
2 *9051:CLK 0
3 *9050:CLK 0
4 *9048:CLK 0
5 *9049:CLK 2.08101e-05
6 *9169:CLK 0.00024612
7 *9165:CLK 2.08101e-05
8 *9113:CLK 0.000410941
9 *9163:CLK 0.000114932
10 *9192:X 0.000131291
11 *721:109 0.00111082
12 *721:92 0.000630381
13 *721:85 0.000608507
14 *721:70 0.00075612
15 *721:57 0.00102268
16 *721:24 0.000726352
17 *721:20 0.00048782
18 *721:10 0.000676083
19 *9081:CLK *9051:RESET_B 8.07672e-05
20 *9113:CLK *8739:A 2.94114e-05
21 *9113:CLK *735:1147 6.10014e-05
22 *9113:CLK *735:1165 8.34426e-05
23 *9113:CLK *745:14 6.49534e-05
24 *9163:CLK *9132:SET_B 0.00010506
25 *9163:CLK *735:1147 2.4997e-05
26 *721:20 *735:1130 7.10866e-05
27 *721:24 *735:1130 0.000108761
28 *721:70 *9169:RESET_B 4.24575e-05
29 *721:92 *9048:RESET_B 2.46073e-05
30 *721:92 *9050:RESET_B 0.000141323
31 *721:92 *735:1364 0.000177483
32 *721:92 *735:1382 7.43782e-05
33 *721:109 *9050:RESET_B 2.48468e-05
34 *8507:C *9081:CLK 0.000120562
35 *8591:A_N *9113:CLK 0
36 *8591:A_N *9163:CLK 0
37 *8661:B *721:24 0.000124895
38 *8840:C *721:85 1.22762e-05
39 *8849:C1 *9081:CLK 0
40 *8851:A2 *721:109 0
41 *8852:A_N *9081:CLK 0.000129858
42 *8852:A_N *721:109 8.7152e-06
43 *9008:A1 *721:57 0.000186092
44 *9048:D *721:92 6.88253e-05
45 *9049:D *9049:CLK 0
46 *9049:D *721:70 6.47326e-05
47 *9049:D *721:85 7.35729e-05
48 *9050:D *721:109 0.00016996
49 *9081:D *9081:CLK 0.000180737
50 *9165:D *721:20 0.000153139
51 *9165:D *721:57 0.00021634
52 *9169:D *9169:CLK 4.82919e-05
53 *620:10 *721:24 2.20732e-05
54 *668:10 *721:85 5.21714e-05
*RES
1 *9192:X *721:10 5.6625 
2 *721:10 *721:20 6.4025 
3 *721:20 *721:24 5.555 
4 *721:24 *9163:CLK 6.255 
5 *721:24 *9113:CLK 10.245 
6 *721:20 *9165:CLK 1.96 
7 *721:10 *721:57 8.6075 
8 *721:57 *9169:CLK 4.39 
9 *721:57 *721:70 5.985 
10 *721:70 *9049:CLK 1.96 
11 *721:70 *721:85 8.065 
12 *721:85 *9048:CLK 1.6 
13 *721:85 *721:92 8.04 
14 *721:92 *9050:CLK 1.6 
15 *721:92 *721:109 8.185 
16 *721:109 *9051:CLK 1.6 
17 *721:109 *9081:CLK 12.595 
*END

*D_NET *722 0.013274
*CONN
*I *9109:CLK I *D sky130_fd_sc_hd__dfrtp_4
*I *9104:CLK I *D sky130_fd_sc_hd__dfrtp_1
*I *9125:CLK I *D sky130_fd_sc_hd__dfrtp_1
*I *9129:CLK I *D sky130_fd_sc_hd__dfrtp_1
*I *9103:CLK I *D sky130_fd_sc_hd__dfrtp_1
*I *9101:CLK I *D sky130_fd_sc_hd__dfrtp_1
*I *9108:CLK I *D sky130_fd_sc_hd__dfrtp_1
*I *9102:CLK I *D sky130_fd_sc_hd__dfrtp_1
*I *9171:CLK I *D sky130_fd_sc_hd__dfrtp_4
*I *9124:CLK I *D sky130_fd_sc_hd__dfrtp_1
*I *9130:CLK I *D sky130_fd_sc_hd__dfrtp_1
*I *9123:CLK I *D sky130_fd_sc_hd__dfrtp_1
*I *9193:X O *D sky130_fd_sc_hd__clkbuf_8
*CAP
1 *9109:CLK 0.000115908
2 *9104:CLK 5.32436e-05
3 *9125:CLK 0
4 *9129:CLK 0
5 *9103:CLK 3.37454e-05
6 *9101:CLK 0.00019602
7 *9108:CLK 9.58248e-05
8 *9102:CLK 0
9 *9171:CLK 0.000250979
10 *9124:CLK 0
11 *9130:CLK 0.00038494
12 *9123:CLK 0.000199117
13 *9193:X 0.000135747
14 *722:87 0.000509111
15 *722:77 0.000433365
16 *722:75 0.000393685
17 *722:73 0.00040754
18 *722:67 0.000783786
19 *722:61 0.000528248
20 *722:26 0.000810857
21 *722:24 0.00059571
22 *722:22 0.000781921
23 *722:12 0.000958876
24 *722:6 0.000744276
25 *9109:CLK *748:18 8.78813e-05
26 *9130:CLK *9130:RESET_B 5.43792e-06
27 *9171:CLK *736:18 0
28 *722:73 *8941:B2 2.95708e-05
29 *722:73 *736:18 0.000176099
30 *722:75 *736:18 0.000426042
31 *722:77 *8940:B2 1.15399e-05
32 *722:77 *736:18 0.000242772
33 *722:77 *764:14 0.000108647
34 *722:87 *736:18 0.000366994
35 *722:87 *764:14 0.000366994
36 *8707:A1 *722:12 0.000135297
37 *8708:B2 *722:6 0.0001947
38 *8733:C1 *722:26 6.15576e-06
39 *8941:A1 *722:67 0.000223204
40 *8941:A1 *722:73 6.38806e-05
41 *8949:A2 *9109:CLK 7.35729e-05
42 *8969:A1 *9123:CLK 0
43 *8972:A0 *722:24 0
44 *8974:A0 *9104:CLK 0.000112679
45 *8974:A0 *722:12 0.000124226
46 *9101:D *9101:CLK 4.66742e-05
47 *9102:D *722:87 4.92062e-05
48 *9108:D *9108:CLK 3.26889e-05
49 *9109:D *9109:CLK 7.60965e-05
50 *9123:D *9123:CLK 3.00381e-05
51 *9125:D *722:22 3.38041e-05
52 *9125:D *722:67 4.82863e-05
53 *9129:D *722:67 0.00010238
54 *9130:D *9130:CLK 2.75145e-05
55 *9193:A *722:6 0.000148883
56 *345:102 *722:22 3.18361e-05
57 *345:102 *722:24 0.000371867
58 *345:102 *722:26 8.93651e-05
59 *347:51 *722:22 1.67382e-05
60 *347:57 *722:22 8.95625e-05
61 *347:57 *722:24 4.78726e-05
62 *347:85 *722:24 0
63 *347:103 *722:24 6.48515e-05
64 *347:103 *722:26 5.9351e-05
65 *525:42 *722:73 8.49205e-05
66 *525:48 *722:77 0
67 *527:22 *722:73 5.51676e-05
68 *527:22 *722:75 0.000178442
69 *527:22 *722:77 2.66935e-05
70 *527:31 *722:73 4.27883e-06
71 *527:90 *722:12 6.29902e-05
72 *533:49 *9123:CLK 0
73 *533:49 *722:26 0
74 *534:59 *722:12 4.18603e-06
75 *534:68 *9104:CLK 3.39526e-05
76 *534:68 *722:12 8.62516e-05
77 *685:25 *722:26 0
78 *699:6 *722:67 4.21973e-05
79 *699:14 *722:67 0.000138799
80 *700:8 *9123:CLK 0
81 *700:36 *9123:CLK 0
82 *700:36 *722:26 0
83 *707:88 *722:6 2.05056e-05
*RES
1 *9193:X *722:6 4.81 
2 *722:6 *722:12 11.225 
3 *722:12 *722:22 9.22 
4 *722:22 *722:24 8.01 
5 *722:24 *722:26 3.93 
6 *722:26 *9123:CLK 6.66 
7 *722:26 *9130:CLK 9.24 
8 *722:24 *9124:CLK 3.6 
9 *722:22 *722:61 2 
10 *722:61 *722:67 10.575 
11 *722:67 *722:73 7.355 
12 *722:73 *722:75 4.95 
13 *722:75 *722:77 2.91 
14 *722:77 *722:87 8.735 
15 *722:87 *9171:CLK 9.785 
16 *722:87 *9102:CLK 1.6 
17 *722:77 *9108:CLK 5.115 
18 *722:75 *9101:CLK 6.045 
19 *722:73 *9103:CLK 4.05 
20 *722:67 *9129:CLK 1.6 
21 *722:61 *9125:CLK 1.6 
22 *722:12 *9104:CLK 4.98 
23 *722:6 *9109:CLK 8.63 
*END

*D_NET *723 0.0104642
*CONN
*I *9071:CLK I *D sky130_fd_sc_hd__dfrtp_1
*I *9072:CLK I *D sky130_fd_sc_hd__dfrtp_1
*I *9100:CLK I *D sky130_fd_sc_hd__dfrtp_1
*I *9062:CLK I *D sky130_fd_sc_hd__dfrtp_2
*I *9073:CLK I *D sky130_fd_sc_hd__dfrtp_1
*I *9112:CLK I *D sky130_fd_sc_hd__dfrtp_4
*I *9099:CLK I *D sky130_fd_sc_hd__dfrtp_1
*I *9194:X O *D sky130_fd_sc_hd__clkbuf_8
*CAP
1 *9071:CLK 4.78797e-05
2 *9072:CLK 3.67931e-05
3 *9100:CLK 1.17375e-05
4 *9062:CLK 0
5 *9073:CLK 0.000510702
6 *9112:CLK 0.000148644
7 *9099:CLK 0.000113612
8 *9194:X 0.000106957
9 *723:50 0.000941937
10 *723:33 0.000820635
11 *723:16 0.000462166
12 *723:14 0.000209834
13 *723:12 0.000216424
14 *723:10 0.000244168
15 *9072:CLK *8925:A3 6.47416e-05
16 *9073:CLK *8898:A1 0.000159964
17 *9073:CLK *9073:RESET_B 8.40269e-05
18 *9073:CLK *735:419 9.61414e-05
19 *9073:CLK *735:429 5.57814e-05
20 *9073:CLK *735:436 0.000133749
21 *9100:CLK *735:373 2.75229e-05
22 *9112:CLK *8947:A2_N 5.30242e-05
23 *9112:CLK *735:369 0
24 *723:12 *8925:B1 1.79536e-05
25 *723:33 *8947:A1_N 2.37273e-05
26 *723:33 *8947:A2_N 7.45826e-05
27 *723:33 *763:26 0.000168772
28 *723:50 *8947:A2_N 0.000180106
29 *723:50 *748:18 0.00066073
30 *8702:A1 *9071:CLK 8.40269e-05
31 *8895:C *723:50 0.000130885
32 *8897:B1 *9071:CLK 2.47313e-05
33 *8897:B1 *9099:CLK 9.04841e-05
34 *8897:B1 *723:12 4.20291e-05
35 *8897:B1 *723:14 0.000117218
36 *8897:B1 *723:16 0.000181264
37 *8924:A1 *723:10 0.000160635
38 *8924:A2 *723:10 9.49389e-05
39 *8925:A2 *9071:CLK 0
40 *8925:A2 *723:10 0.000128353
41 *8925:A2 *723:12 8.53113e-06
42 *8925:B2 *723:10 0.00013521
43 *8925:B2 *723:12 3.09164e-05
44 *8947:B1 *723:33 9.07709e-05
45 *8947:B2 *723:33 0.000677244
46 *8948:A3 *723:50 0.000229203
47 *8948:B1 *723:33 4.63756e-05
48 *8949:B1 *723:50 0
49 *8949:B2 *9073:CLK 2.86265e-06
50 *8950:B2 *9112:CLK 5.82425e-05
51 *9062:D *9073:CLK 0.000111901
52 *9072:D *9072:CLK 8.81313e-05
53 *9112:D *9112:CLK 8.63095e-05
54 *208:63 *9099:CLK 0.000176967
55 *208:63 *723:14 0.000129735
56 *208:63 *723:16 0.000327216
57 *236:77 *723:12 1.96767e-05
58 *239:88 *723:12 4.48683e-05
59 *239:88 *723:14 4.01243e-05
60 *239:103 *723:10 8.23457e-05
61 *239:103 *723:12 2.54052e-05
62 *347:49 *9073:CLK 8.40269e-05
63 *383:51 *9073:CLK 2.01259e-05
64 *503:30 *9100:CLK 4.82919e-05
65 *505:28 *9112:CLK 0.00016063
66 *505:97 *9073:CLK 0.000160536
67 *529:10 *723:50 0
68 *529:18 *9112:CLK 3.26889e-05
69 *529:57 *723:50 0
70 *579:12 *9073:CLK 4.41468e-05
71 *642:33 *723:33 0.000485718
72 *704:110 *9099:CLK 8.65905e-05
73 *707:78 *723:10 6.33103e-05
74 *707:103 *9073:CLK 0.000139252
*RES
1 *9194:X *723:10 7.41 
2 *723:10 *723:12 2.145 
3 *723:12 *723:14 2.655 
4 *723:14 *723:16 3.93 
5 *723:16 *9099:CLK 6.54 
6 *723:16 *723:33 13.075 
7 *723:33 *9112:CLK 7.335 
8 *723:33 *723:50 12.05 
9 *723:50 *9073:CLK 16.61 
10 *723:50 *9062:CLK 1.6 
11 *723:14 *9100:CLK 4.05 
12 *723:12 *9072:CLK 4.755 
13 *723:10 *9071:CLK 4.755 
*END

*D_NET *724 0.00368087
*CONN
*I *8686:B I *D sky130_fd_sc_hd__and4b_1
*I *8933:B2 I *D sky130_fd_sc_hd__a22o_1
*I *8551:B I *D sky130_fd_sc_hd__nor2_1
*I *9098:Q O *D sky130_fd_sc_hd__dfrtp_1
*CAP
1 *8686:B 0.000498595
2 *8933:B2 0.000145881
3 *8551:B 0.000500695
4 *9098:Q 0
5 *724:8 0.000947654
6 *724:4 0.000799673
7 *8551:B *8552:A3 8.49205e-05
8 *8551:B *9098:RESET_B 2.49909e-05
9 *8933:B2 *8547:C 0
10 *8933:B2 *8678:A 0
11 *8933:B2 *8933:A1 3.59531e-06
12 *8933:B2 *9098:RESET_B 5.23362e-05
13 *724:8 *9098:RESET_B 2.40185e-05
14 *8551:A *8551:B 5.05437e-05
15 *8552:B1 *8551:B 3.97267e-05
16 *8686:D *8686:B 0.000198845
17 *8701:A2 *8686:B 3.27355e-05
18 *8701:A2 *724:8 0
19 *8702:C1 *8686:B 4.82919e-05
20 *8933:A2 *8933:B2 4.82863e-05
21 *8933:B1 *8933:B2 4.82863e-05
22 *9098:CLK *8551:B 2.16917e-05
23 *9098:D *8551:B 4.70919e-05
24 *9098:D *724:8 6.3014e-05
*RES
1 *9098:Q *724:4 1.6 
2 *724:4 *724:8 5.115 
3 *724:8 *8551:B 9.37 
4 *724:8 *8933:B2 8.195 
5 *724:4 *8686:B 7.57 
*END

*D_NET *725 0.0028419
*CONN
*I *8698:B I *D sky130_fd_sc_hd__and4b_1
*I *8934:B2 I *D sky130_fd_sc_hd__a22o_1
*I *9099:Q O *D sky130_fd_sc_hd__dfrtp_1
*CAP
1 *8698:B 0.00020025
2 *8934:B2 0.000439214
3 *9099:Q 0.000112812
4 *725:8 0.000752277
5 *8698:B *8933:A1 0
6 *8934:B2 *8678:A 9.51101e-05
7 *8934:B2 *8933:A1 0
8 *8934:B2 *742:58 8.34426e-05
9 *8684:A *8698:B 9.20976e-05
10 *8684:A *8934:B2 3.09164e-05
11 *8698:A_N *8698:B 4.66108e-05
12 *8719:B *8934:B2 1.80164e-05
13 *8933:A2 *8934:B2 0.000277223
14 *9098:D *8934:B2 0
15 *9099:D *8934:B2 0.000232105
16 *339:23 *8698:B 0.000175901
17 *339:36 *8698:B 2.07184e-05
18 *505:64 *8934:B2 0.000151599
19 *524:12 *8698:B 4.66826e-05
20 *704:110 *725:8 6.6925e-05
*RES
1 *9099:Q *725:8 5.085 
2 *725:8 *8934:B2 13.035 
3 *725:8 *8698:B 7.815 
*END

*D_NET *726 0.00370268
*CONN
*I *8704:B I *D sky130_fd_sc_hd__and4b_1
*I *8935:B2 I *D sky130_fd_sc_hd__a22o_1
*I *9100:Q O *D sky130_fd_sc_hd__dfrtp_1
*CAP
1 *8704:B 0.00076503
2 *8935:B2 0.000534329
3 *9100:Q 0
4 *726:4 0.00129936
5 *8935:B2 *8547:C 0.000202095
6 *8702:C1 *8704:B 0.000119246
7 *8935:A2 *8935:B2 0
8 *9100:D *8935:B2 9.77268e-05
9 *236:77 *8935:B2 4.78859e-05
10 *337:38 *8704:B 5.35219e-05
11 *339:36 *8704:B 0.000148994
12 *339:47 *8704:B 4.43871e-06
13 *503:16 *8704:B 0.000240155
14 *503:30 *8935:B2 0.000189894
*RES
1 *9100:Q *726:4 1.6 
2 *726:4 *8935:B2 13.745 
3 *726:4 *8704:B 16.655 
*END

*D_NET *727 0.00242484
*CONN
*I *8693:B2 I *D sky130_fd_sc_hd__a221o_1
*I *8924:A3 I *D sky130_fd_sc_hd__a32o_1
*I *9071:Q O *D sky130_fd_sc_hd__dfrtp_1
*CAP
1 *8693:B2 0.000368666
2 *8924:A3 0.000321288
3 *9071:Q 0
4 *727:4 0.000689954
5 *8924:A3 *8934:A1 0
6 *8924:A3 *8935:A1 0
7 *8924:A3 *763:34 9.62181e-05
8 *8693:C1 *8693:B2 0.000702601
9 *8693:C1 *8924:A3 8.65961e-05
10 *8702:A1 *8924:A3 0.000109386
11 *8702:B1 *8693:B2 6.03947e-06
12 *9071:D *8924:A3 4.40899e-05
*RES
1 *9071:Q *727:4 1.6 
2 *727:4 *8924:A3 11.405 
3 *727:4 *8693:B2 9.07375 
*END

*D_NET *728 0.00264643
*CONN
*I *8702:B2 I *D sky130_fd_sc_hd__a221o_1
*I *8925:A3 I *D sky130_fd_sc_hd__a32o_1
*I *9072:Q O *D sky130_fd_sc_hd__dfrtp_1
*CAP
1 *8702:B2 0.000154136
2 *8925:A3 0.000588248
3 *9072:Q 0
4 *728:4 0.000742384
5 *8925:A3 *8950:A1 1.31735e-05
6 *8693:C1 *8925:A3 3.69766e-05
7 *8702:A1 *8702:B2 2.64351e-05
8 *8702:B1 *8702:B2 1.95092e-05
9 *8702:C1 *8702:B2 9.98867e-06
10 *8922:D *8925:A3 0.000129241
11 *8932:A_N *8702:B2 0.000277939
12 *8932:C *8702:B2 0.000279787
13 *8932:C *8925:A3 4.99619e-05
14 *9072:CLK *8925:A3 6.47416e-05
15 *9072:D *8925:A3 7.02853e-05
16 *208:55 *8925:A3 4.82863e-05
17 *208:63 *8925:A3 3.83194e-05
18 *275:31 *8702:B2 2.09775e-05
19 *503:16 *8702:B2 5.55276e-05
20 *503:30 *8925:A3 2.0514e-05
*RES
1 *9072:Q *728:4 1.6 
2 *728:4 *8925:A3 15.2 
3 *728:4 *8702:B2 7.135 
*END

*D_NET *729 0.00344359
*CONN
*I *8705:B2 I *D sky130_fd_sc_hd__a221o_1
*I *8926:A3 I *D sky130_fd_sc_hd__a32o_1
*I *9073:Q O *D sky130_fd_sc_hd__dfrtp_1
*CAP
1 *8705:B2 0.000870772
2 *8926:A3 7.70132e-05
3 *9073:Q 4.42088e-05
4 *729:12 0.000991994
5 *8705:B2 *8926:B1 1.08251e-05
6 *8705:B2 *8935:A1 9.45141e-05
7 *8926:A3 *8926:B1 1.42696e-05
8 *8926:A3 *736:41 6.27114e-05
9 *8705:C1 *8705:B2 8.7152e-06
10 *8708:B2 *8705:B2 0.000113271
11 *8709:B2 *8705:B2 0
12 *8727:C1 *8705:B2 0
13 *8904:A1 *8705:B2 0.000256976
14 *8904:A2 *8705:B2 5.95425e-05
15 *8954:A2 *8705:B2 5.72675e-06
16 *8954:A3 *8705:B2 4.66108e-05
17 *8954:B1 *8705:B2 8.7152e-06
18 *9073:D *8926:A3 1.16578e-05
19 *236:77 *729:12 7.4027e-05
20 *239:116 *729:12 7.23533e-05
21 *275:63 *8705:B2 1.20741e-05
22 *337:49 *8705:B2 3.16057e-06
23 *344:31 *8705:B2 7.9642e-06
24 *344:46 *8705:B2 9.98943e-06
25 *383:101 *8705:B2 0.00026888
26 *502:85 *8705:B2 0.000191335
27 *512:12 *8705:B2 4.82172e-06
28 *531:18 *8705:B2 0.000102891
29 *707:88 *8926:A3 1.85674e-05
*RES
1 *9073:Q *729:12 6.83 
2 *729:12 *8926:A3 3.1 
3 *729:12 *8705:B2 17.9777 
*END

*D_NET *730 0.00173002
*CONN
*I *8711:B2 I *D sky130_fd_sc_hd__a221o_1
*I *8927:A3 I *D sky130_fd_sc_hd__a32o_1
*I *9074:Q O *D sky130_fd_sc_hd__dfrtp_1
*CAP
1 *8711:B2 0.000344694
2 *8927:A3 1.95174e-05
3 *9074:Q 0.000130417
4 *730:6 0.000494628
5 *8711:B2 *8547:C 0.000110482
6 *730:6 *8714:B2 2.8585e-06
7 *8711:A1 *8711:B2 1.12643e-05
8 *8711:C1 *8711:B2 9.50342e-06
9 *8714:B1 *8711:B2 7.06865e-05
10 *8929:A1 *8927:A3 8.7152e-06
11 *9074:D *730:6 4.66826e-05
12 *239:129 *8927:A3 3.77453e-05
13 *344:70 *8711:B2 6.03947e-06
14 *521:16 *8711:B2 0.000339315
15 *521:20 *8711:B2 1.03423e-05
16 *521:20 *730:6 1.1392e-05
17 *521:22 *8927:A3 7.57315e-05
*RES
1 *9074:Q *730:6 3.085 
2 *730:6 *8927:A3 6.47 
3 *730:6 *8711:B2 10.8988 
*END

*D_NET *731 0.00271666
*CONN
*I *8714:B2 I *D sky130_fd_sc_hd__a22o_1
*I *8928:A3 I *D sky130_fd_sc_hd__a32o_1
*I *9075:Q O *D sky130_fd_sc_hd__dfrtp_1
*CAP
1 *8714:B2 0.000477701
2 *8928:A3 0.000136797
3 *9075:Q 0.000263873
4 *731:12 0.000878372
5 *8714:B2 *8927:B1 1.59999e-05
6 *8928:A3 *735:448 0.00024846
7 *731:12 *9076:RESET_B 0.000150653
8 *731:12 *735:448 0.000240476
9 *731:12 *735:461 4.82863e-05
10 *8711:A1 *8714:B2 4.41506e-05
11 *8714:A1 *8714:B2 0
12 *8951:A1 *8928:A3 0
13 *8951:A1 *731:12 0
14 *9074:D *8714:B2 6.83629e-05
15 *521:16 *8714:B2 5.57477e-05
16 *521:20 *8714:B2 8.49205e-05
17 *730:6 *8714:B2 2.8585e-06
*RES
1 *9075:Q *731:12 8.7 
2 *731:12 *8928:A3 6.51 
3 *731:12 *8714:B2 9.6 
*END

*D_NET *732 0.00270929
*CONN
*I *8721:B2 I *D sky130_fd_sc_hd__a221o_1
*I *8929:A3 I *D sky130_fd_sc_hd__a32o_1
*I *9076:Q O *D sky130_fd_sc_hd__dfrtp_1
*CAP
1 *8721:B2 0.000358108
2 *8929:A3 0.000581991
3 *9076:Q 0
4 *732:4 0.000940099
5 *8721:B2 *735:513 8.97793e-05
6 *8929:A3 *8929:B1 0
7 *8929:A3 *9076:RESET_B 0.000264037
8 *8929:A3 *735:513 3.99879e-05
9 *8695:A *8721:B2 0.00015997
10 *8716:A1 *8721:B2 0
11 *8716:B2 *8721:B2 1.01661e-05
12 *8716:B2 *8929:A3 1.83847e-05
13 *8717:B1 *8721:B2 7.25921e-06
14 *8721:B1 *8721:B2 5.76743e-05
15 *8920:C *8721:B2 0
16 *8921:A *8721:B2 3.81581e-05
17 *8929:A1 *8929:A3 0
18 *8929:A2 *8929:A3 0
19 *9181:A *8929:A3 2.75229e-05
20 *521:88 *8929:A3 0.000116151
21 *523:54 *8929:A3 0
22 *523:67 *8929:A3 0
*RES
1 *9076:Q *732:4 1.6 
2 *732:4 *8929:A3 13.865 
3 *732:4 *8721:B2 11.6488 
*END

*D_NET *733 0.00828045
*CONN
*I *8547:B I *D sky130_fd_sc_hd__and3_1
*I *8930:A3 I *D sky130_fd_sc_hd__a32o_1
*I *8727:B2 I *D sky130_fd_sc_hd__a221o_1
*I *9077:Q O *D sky130_fd_sc_hd__dfrtp_1
*CAP
1 *8547:B 0.000115539
2 *8930:A3 0.000500622
3 *8727:B2 0.00152163
4 *9077:Q 6.03582e-05
5 *733:10 0.00206194
6 *733:8 0.000215583
7 *8547:B *8547:C 8.53113e-06
8 *8727:B2 *8547:C 0.000115872
9 *8930:A3 *8931:B1 1.12459e-05
10 *733:10 *8547:C 7.06865e-05
11 *8547:A *8727:B2 0
12 *8547:A *733:8 4.99619e-05
13 *8547:A *733:10 0
14 *8548:A *8547:B 2.97004e-06
15 *8709:B2 *8727:B2 0
16 *8713:A2 *8727:B2 5.61105e-05
17 *8717:A1 *8727:B2 5.43211e-05
18 *8717:A2 *8727:B2 0.000124285
19 *8717:C1 *8727:B2 0.000105084
20 *8722:A3 *8727:B2 3.72378e-05
21 *8727:A1 *8727:B2 0.00023629
22 *8727:A2 *8727:B2 0
23 *8727:C1 *8727:B2 9.09788e-06
24 *8912:A *8727:B2 7.97539e-05
25 *8912:A *8930:A3 2.49909e-05
26 *8930:A1 *8930:A3 2.01411e-05
27 *8930:A2 *8930:A3 0.000223937
28 *8930:B2 *8930:A3 4.65889e-05
29 *8931:A2 *8930:A3 8.8266e-05
30 *8959:A3 *8727:B2 0.000152808
31 *8960:B1 *8727:B2 0.000187714
32 *9118:D *8727:B2 5.00699e-05
33 *343:14 *8727:B2 0.000122259
34 *351:12 *8727:B2 0.000105841
35 *508:54 *8727:B2 0.00105316
36 *515:30 *8727:B2 0.000169748
37 *516:6 *8727:B2 0.000491618
38 *607:14 *8727:B2 6.52265e-05
39 *710:42 *8547:B 0
40 *710:46 *8547:B 2.75229e-05
41 *710:46 *733:8 1.34503e-05
42 *710:70 *8547:B 0
*RES
1 *9077:Q *733:8 4.395 
2 *733:8 *733:10 0.87 
3 *733:10 *8727:B2 36.4111 
4 *733:10 *8930:A3 10.185 
5 *733:8 *8547:B 5.43 
*END

*D_NET *734 0.00993168
*CONN
*I *8678:A I *D sky130_fd_sc_hd__inv_2
*I *8547:C I *D sky130_fd_sc_hd__and3_1
*I *8552:A3 I *D sky130_fd_sc_hd__o31a_1
*I *9045:Q O *D sky130_fd_sc_hd__dfrtp_1
*CAP
1 *8678:A 0.000380862
2 *8547:C 0.00180966
3 *8552:A3 1.8095e-05
4 *9045:Q 0
5 *734:10 0.00217876
6 *734:4 0.000731865
7 *8547:C *8908:B 0
8 *8547:C *8935:A1 0.00100878
9 *8547:C *9098:RESET_B 0
10 *8678:A *9098:RESET_B 0
11 *8678:A *742:58 0
12 *734:10 *735:264 3.57317e-05
13 *8547:B *8547:C 8.53113e-06
14 *8551:B *8552:A3 8.49205e-05
15 *8711:B2 *8547:C 0.000110482
16 *8711:C1 *8547:C 0.000155117
17 *8714:A1 *8547:C 0.000418738
18 *8714:B1 *8547:C 7.03353e-05
19 *8719:B *8678:A 0.000275548
20 *8727:B2 *8547:C 0.000115872
21 *8912:A *8547:C 8.34426e-05
22 *8916:A *8547:C 1.88904e-05
23 *8920:C *8547:C 0
24 *8922:C *8547:C 8.69851e-05
25 *8933:B2 *8547:C 0
26 *8933:B2 *8678:A 0
27 *8934:B2 *8678:A 9.51101e-05
28 *8935:A2 *8547:C 8.69088e-05
29 *8935:B2 *8547:C 0.000202095
30 *8947:B2 *8547:C 0.00014307
31 *9098:CLK *8547:C 2.34423e-05
32 *9098:CLK *8552:A3 8.49205e-05
33 *9098:CLK *734:10 4.75576e-05
34 *9098:D *8678:A 9.044e-05
35 *9099:D *8547:C 8.71001e-05
36 *236:77 *8547:C 7.72568e-05
37 *236:85 *8547:C 6.2912e-05
38 *236:98 *8547:C 0.000132748
39 *236:100 *8547:C 1.61696e-05
40 *236:113 *8547:C 4.94404e-05
41 *505:64 *8547:C 0.000418678
42 *521:16 *8547:C 8.50332e-05
43 *523:23 *8547:C 7.3664e-05
44 *523:32 *8547:C 0.000265465
45 *524:29 *8547:C 2.13396e-05
46 *710:10 *8547:C 0.000124752
47 *710:27 *8547:C 7.45302e-05
48 *710:31 *8547:C 0
49 *710:42 *8547:C 0
50 *710:46 *8547:C 5.73568e-06
51 *733:10 *8547:C 7.06865e-05
*RES
1 *9045:Q *734:4 1.6 
2 *734:4 *734:10 6.335 
3 *734:10 *8552:A3 4.395 
4 *734:10 *8547:C 47.355 
5 *734:4 *8678:A 12.785 
*END

*D_NET *735 0.159391
*CONN
*I *9035:RESET_B I *D sky130_fd_sc_hd__dfrtp_2
*I *9038:RESET_B I *D sky130_fd_sc_hd__dfrtp_2
*I *9152:RESET_B I *D sky130_fd_sc_hd__dfrtp_1
*I *9147:RESET_B I *D sky130_fd_sc_hd__dfrtp_4
*I *9148:RESET_B I *D sky130_fd_sc_hd__dfrtp_4
*I *9059:RESET_B I *D sky130_fd_sc_hd__dfrtp_1
*I *9058:RESET_B I *D sky130_fd_sc_hd__dfrtp_1
*I *9057:RESET_B I *D sky130_fd_sc_hd__dfrtp_1
*I *9159:RESET_B I *D sky130_fd_sc_hd__dfrtp_1
*I *9157:RESET_B I *D sky130_fd_sc_hd__dfrtp_1
*I *9156:RESET_B I *D sky130_fd_sc_hd__dfrtp_1
*I *9155:RESET_B I *D sky130_fd_sc_hd__dfrtp_2
*I *9154:RESET_B I *D sky130_fd_sc_hd__dfrtp_4
*I *9153:RESET_B I *D sky130_fd_sc_hd__dfrtp_1
*I *9150:RESET_B I *D sky130_fd_sc_hd__dfrtp_2
*I *9151:RESET_B I *D sky130_fd_sc_hd__dfrtp_4
*I *9149:RESET_B I *D sky130_fd_sc_hd__dfrtp_2
*I *9056:RESET_B I *D sky130_fd_sc_hd__dfrtp_2
*I *9055:RESET_B I *D sky130_fd_sc_hd__dfrtp_1
*I *9052:RESET_B I *D sky130_fd_sc_hd__dfrtp_2
*I *9054:RESET_B I *D sky130_fd_sc_hd__dfrtp_1
*I *9053:RESET_B I *D sky130_fd_sc_hd__dfrtp_1
*I *9051:RESET_B I *D sky130_fd_sc_hd__dfrtp_1
*I *9050:RESET_B I *D sky130_fd_sc_hd__dfrtp_1
*I *9048:RESET_B I *D sky130_fd_sc_hd__dfrtp_4
*I *9049:RESET_B I *D sky130_fd_sc_hd__dfrtp_1
*I *9169:RESET_B I *D sky130_fd_sc_hd__dfrtp_1
*I *9164:RESET_B I *D sky130_fd_sc_hd__dfrtp_1
*I *9165:SET_B I *D sky130_fd_sc_hd__dfstp_2
*I *9142:SET_B I *D sky130_fd_sc_hd__dfstp_1
*I *9140:SET_B I *D sky130_fd_sc_hd__dfstp_1
*I *9141:SET_B I *D sky130_fd_sc_hd__dfstp_1
*I *9047:RESET_B I *D sky130_fd_sc_hd__dfrtp_4
*I *9060:RESET_B I *D sky130_fd_sc_hd__dfrtp_1
*I *9061:RESET_B I *D sky130_fd_sc_hd__dfrtp_1
*I *9046:RESET_B I *D sky130_fd_sc_hd__dfrtp_4
*I *9136:RESET_B I *D sky130_fd_sc_hd__dfrtp_1
*I *9138:RESET_B I *D sky130_fd_sc_hd__dfrtp_1
*I *9044:RESET_B I *D sky130_fd_sc_hd__dfrtp_1
*I *9043:RESET_B I *D sky130_fd_sc_hd__dfrtp_1
*I *9134:RESET_B I *D sky130_fd_sc_hd__dfrtp_4
*I *9042:RESET_B I *D sky130_fd_sc_hd__dfrtp_1
*I *9137:RESET_B I *D sky130_fd_sc_hd__dfrtp_1
*I *9131:SET_B I *D sky130_fd_sc_hd__dfstp_2
*I *9132:SET_B I *D sky130_fd_sc_hd__dfstp_2
*I *9163:RESET_B I *D sky130_fd_sc_hd__dfrtp_1
*I *9133:RESET_B I *D sky130_fd_sc_hd__dfrtp_1
*I *9040:RESET_B I *D sky130_fd_sc_hd__dfrtp_1
*I *9039:RESET_B I *D sky130_fd_sc_hd__dfrtp_2
*I *9036:RESET_B I *D sky130_fd_sc_hd__dfrtp_2
*I *9034:RESET_B I *D sky130_fd_sc_hd__dfrtp_2
*I *9032:RESET_B I *D sky130_fd_sc_hd__dfrtp_1
*I *9026:RESET_B I *D sky130_fd_sc_hd__dfrtp_4
*I *9093:RESET_B I *D sky130_fd_sc_hd__dfrtp_4
*I *9090:RESET_B I *D sky130_fd_sc_hd__dfrtp_1
*I *9091:RESET_B I *D sky130_fd_sc_hd__dfrtp_1
*I *9122:RESET_B I *D sky130_fd_sc_hd__dfrtp_2
*I *9097:RESET_B I *D sky130_fd_sc_hd__dfrtp_1
*I *9096:RESET_B I *D sky130_fd_sc_hd__dfrtp_4
*I *9094:RESET_B I *D sky130_fd_sc_hd__dfrtp_4
*I *9074:RESET_B I *D sky130_fd_sc_hd__dfrtp_1
*I *9104:RESET_B I *D sky130_fd_sc_hd__dfrtp_1
*I *9128:RESET_B I *D sky130_fd_sc_hd__dfrtp_1
*I *9106:RESET_B I *D sky130_fd_sc_hd__dfrtp_1
*I *9129:RESET_B I *D sky130_fd_sc_hd__dfrtp_1
*I *9107:RESET_B I *D sky130_fd_sc_hd__dfrtp_1
*I *9125:RESET_B I *D sky130_fd_sc_hd__dfrtp_1
*I *9124:RESET_B I *D sky130_fd_sc_hd__dfrtp_1
*I *9130:RESET_B I *D sky130_fd_sc_hd__dfrtp_1
*I *9123:RESET_B I *D sky130_fd_sc_hd__dfrtp_1
*I *9077:RESET_B I *D sky130_fd_sc_hd__dfrtp_1
*I *9078:RESET_B I *D sky130_fd_sc_hd__dfrtp_4
*I *9119:SET_B I *D sky130_fd_sc_hd__dfstp_2
*I *9118:SET_B I *D sky130_fd_sc_hd__dfstp_2
*I *9161:RESET_B I *D sky130_fd_sc_hd__dfrtp_1
*I *9041:RESET_B I *D sky130_fd_sc_hd__dfrtp_1
*I *9069:SET_B I *D sky130_fd_sc_hd__dfstp_1
*I *9068:SET_B I *D sky130_fd_sc_hd__dfstp_1
*I *9067:SET_B I *D sky130_fd_sc_hd__dfstp_1
*I *9066:SET_B I *D sky130_fd_sc_hd__dfstp_1
*I *9065:SET_B I *D sky130_fd_sc_hd__dfstp_1
*I *9158:RESET_B I *D sky130_fd_sc_hd__dfrtp_1
*I *9162:RESET_B I *D sky130_fd_sc_hd__dfrtp_1
*I *9160:RESET_B I *D sky130_fd_sc_hd__dfrtp_2
*I *9144:SET_B I *D sky130_fd_sc_hd__dfstp_1
*I *9145:SET_B I *D sky130_fd_sc_hd__dfstp_1
*I *9167:SET_B I *D sky130_fd_sc_hd__dfstp_1
*I *9117:SET_B I *D sky130_fd_sc_hd__dfstp_1
*I *9063:SET_B I *D sky130_fd_sc_hd__dfstp_1
*I *9064:SET_B I *D sky130_fd_sc_hd__dfstp_1
*I *9115:SET_B I *D sky130_fd_sc_hd__dfstp_1
*I *9114:SET_B I *D sky130_fd_sc_hd__dfstp_1
*I *9166:SET_B I *D sky130_fd_sc_hd__dfstp_1
*I *9168:SET_B I *D sky130_fd_sc_hd__dfstp_1
*I *9139:SET_B I *D sky130_fd_sc_hd__dfstp_1
*I *9146:SET_B I *D sky130_fd_sc_hd__dfstp_1
*I *9070:SET_B I *D sky130_fd_sc_hd__dfstp_1
*I *9121:SET_B I *D sky130_fd_sc_hd__dfstp_1
*I *9120:SET_B I *D sky130_fd_sc_hd__dfstp_1
*I *9116:SET_B I *D sky130_fd_sc_hd__dfstp_1
*I *9076:RESET_B I *D sky130_fd_sc_hd__dfrtp_1
*I *9105:RESET_B I *D sky130_fd_sc_hd__dfrtp_1
*I *9127:RESET_B I *D sky130_fd_sc_hd__dfrtp_1
*I *9126:RESET_B I *D sky130_fd_sc_hd__dfrtp_1
*I *9075:RESET_B I *D sky130_fd_sc_hd__dfrtp_1
*I *9073:RESET_B I *D sky130_fd_sc_hd__dfrtp_1
*I *9109:RESET_B I *D sky130_fd_sc_hd__dfrtp_4
*I *9062:RESET_B I *D sky130_fd_sc_hd__dfrtp_2
*I *9099:RESET_B I *D sky130_fd_sc_hd__dfrtp_1
*I *9071:RESET_B I *D sky130_fd_sc_hd__dfrtp_1
*I *9072:RESET_B I *D sky130_fd_sc_hd__dfrtp_1
*I *9100:RESET_B I *D sky130_fd_sc_hd__dfrtp_1
*I *9112:RESET_B I *D sky130_fd_sc_hd__dfrtp_4
*I *9110:RESET_B I *D sky130_fd_sc_hd__dfrtp_4
*I *9111:RESET_B I *D sky130_fd_sc_hd__dfrtp_2
*I *9045:RESET_B I *D sky130_fd_sc_hd__dfrtp_1
*I *9098:RESET_B I *D sky130_fd_sc_hd__dfrtp_1
*I *9173:RESET_B I *D sky130_fd_sc_hd__dfrtp_1
*I *9177:RESET_B I *D sky130_fd_sc_hd__dfrtp_4
*I *9143:RESET_B I *D sky130_fd_sc_hd__dfrtp_1
*I *9176:RESET_B I *D sky130_fd_sc_hd__dfrtp_1
*I *9030:RESET_B I *D sky130_fd_sc_hd__dfrtp_4
*I *9092:SET_B I *D sky130_fd_sc_hd__dfstp_2
*I *9174:RESET_B I *D sky130_fd_sc_hd__dfrtp_1
*I *9172:RESET_B I *D sky130_fd_sc_hd__dfrtp_2
*I *9103:RESET_B I *D sky130_fd_sc_hd__dfrtp_1
*I *9101:RESET_B I *D sky130_fd_sc_hd__dfrtp_1
*I *9108:RESET_B I *D sky130_fd_sc_hd__dfrtp_1
*I *9102:RESET_B I *D sky130_fd_sc_hd__dfrtp_1
*I *9171:RESET_B I *D sky130_fd_sc_hd__dfrtp_4
*I *9170:RESET_B I *D sky130_fd_sc_hd__dfrtp_4
*I *9175:RESET_B I *D sky130_fd_sc_hd__dfrtp_1
*I *9095:RESET_B I *D sky130_fd_sc_hd__dfrtp_2
*I *9088:RESET_B I *D sky130_fd_sc_hd__dfrtp_1
*I *9089:RESET_B I *D sky130_fd_sc_hd__dfrtp_1
*I *9029:RESET_B I *D sky130_fd_sc_hd__dfrtp_4
*I *9031:RESET_B I *D sky130_fd_sc_hd__dfrtp_4
*I *9037:RESET_B I *D sky130_fd_sc_hd__dfrtp_2
*I *9033:RESET_B I *D sky130_fd_sc_hd__dfrtp_2
*I *9024:RESET_B I *D sky130_fd_sc_hd__dfrtp_2
*I *9028:RESET_B I *D sky130_fd_sc_hd__dfrtp_4
*I *9025:RESET_B I *D sky130_fd_sc_hd__dfrtp_2
*I *9027:RESET_B I *D sky130_fd_sc_hd__dfrtp_4
*I *9204:X O *D sky130_fd_sc_hd__clkbuf_16
*CAP
1 *9035:RESET_B 9.59886e-06
2 *9038:RESET_B 3.71082e-05
3 *9152:RESET_B 4.7699e-05
4 *9147:RESET_B 4.21585e-05
5 *9148:RESET_B 9.5431e-05
6 *9059:RESET_B 4.18937e-05
7 *9058:RESET_B 4.26074e-05
8 *9057:RESET_B 7.77537e-05
9 *9159:RESET_B 0.000241682
10 *9157:RESET_B 0.00023796
11 *9156:RESET_B 5.48995e-05
12 *9155:RESET_B 0
13 *9154:RESET_B 5.9964e-05
14 *9153:RESET_B 9.16701e-05
15 *9150:RESET_B 0
16 *9151:RESET_B 1.62896e-05
17 *9149:RESET_B 1.85291e-05
18 *9056:RESET_B 0.000120121
19 *9055:RESET_B 0
20 *9052:RESET_B 4.33849e-05
21 *9054:RESET_B 0.000775091
22 *9053:RESET_B 8.62412e-05
23 *9051:RESET_B 1.62896e-05
24 *9050:RESET_B 0.000793473
25 *9048:RESET_B 7.05186e-06
26 *9049:RESET_B 9.33336e-05
27 *9169:RESET_B 1.85291e-05
28 *9164:RESET_B 0.000354528
29 *9165:SET_B 0.000559549
30 *9142:SET_B 1.77753e-05
31 *9140:SET_B 0.000210151
32 *9141:SET_B 0
33 *9047:RESET_B 2.79065e-05
34 *9060:RESET_B 7.98458e-05
35 *9061:RESET_B 0.000314777
36 *9046:RESET_B 0
37 *9136:RESET_B 4.26218e-05
38 *9138:RESET_B 6.2124e-05
39 *9044:RESET_B 0.000308238
40 *9043:RESET_B 0
41 *9134:RESET_B 0.000700692
42 *9042:RESET_B 0.000710662
43 *9137:RESET_B 0.000438182
44 *9131:SET_B 3.96805e-05
45 *9132:SET_B 0.000595909
46 *9163:RESET_B 5.87966e-05
47 *9133:RESET_B 8.91106e-05
48 *9040:RESET_B 0
49 *9039:RESET_B 0
50 *9036:RESET_B 0
51 *9034:RESET_B 0.00139741
52 *9032:RESET_B 0.00174849
53 *9026:RESET_B 0.000716889
54 *9093:RESET_B 8.84467e-05
55 *9090:RESET_B 0
56 *9091:RESET_B 0.000573103
57 *9122:RESET_B 8.82195e-05
58 *9097:RESET_B 0.000569848
59 *9096:RESET_B 3.45541e-05
60 *9094:RESET_B 5.67953e-05
61 *9074:RESET_B 0.000594957
62 *9104:RESET_B 0.000613835
63 *9128:RESET_B 0.000155365
64 *9106:RESET_B 1.85291e-05
65 *9129:RESET_B 0.000253182
66 *9107:RESET_B 0.000288493
67 *9125:RESET_B 0
68 *9124:RESET_B 0
69 *9130:RESET_B 0.000261837
70 *9123:RESET_B 3.96889e-05
71 *9077:RESET_B 0.000299628
72 *9078:RESET_B 8.48086e-05
73 *9119:SET_B 0.000142434
74 *9118:SET_B 0
75 *9161:RESET_B 0.000253609
76 *9041:RESET_B 0.000651657
77 *9069:SET_B 0
78 *9068:SET_B 0.000220524
79 *9067:SET_B 5.72667e-05
80 *9066:SET_B 2.16746e-05
81 *9065:SET_B 8.38308e-05
82 *9158:RESET_B 0.000181675
83 *9162:RESET_B 3.12258e-05
84 *9160:RESET_B 0.000288467
85 *9144:SET_B 3.14244e-05
86 *9145:SET_B 4.52364e-05
87 *9167:SET_B 0
88 *9117:SET_B 0.000425001
89 *9063:SET_B 0
90 *9064:SET_B 0.000382365
91 *9115:SET_B 0
92 *9114:SET_B 0.000222933
93 *9166:SET_B 1.80962e-05
94 *9168:SET_B 0
95 *9139:SET_B 0
96 *9146:SET_B 0.000558898
97 *9070:SET_B 0.000608595
98 *9121:SET_B 0
99 *9120:SET_B 9.23871e-05
100 *9116:SET_B 5.41926e-05
101 *9076:RESET_B 0.000989396
102 *9105:RESET_B 2.9481e-05
103 *9127:RESET_B 0.000175441
104 *9126:RESET_B 0.000111704
105 *9075:RESET_B 1.77753e-05
106 *9073:RESET_B 0.000594748
107 *9109:RESET_B 0
108 *9062:RESET_B 2.44412e-05
109 *9099:RESET_B 0.000284303
110 *9071:RESET_B 8.371e-05
111 *9072:RESET_B 0
112 *9100:RESET_B 0.000121465
113 *9112:RESET_B 0
114 *9110:RESET_B 0
115 *9111:RESET_B 0
116 *9045:RESET_B 9.38685e-06
117 *9098:RESET_B 0.000218248
118 *9173:RESET_B 5.79296e-05
119 *9177:RESET_B 0
120 *9143:RESET_B 0
121 *9176:RESET_B 0
122 *9030:RESET_B 0.000518208
123 *9092:SET_B 0.000193634
124 *9174:RESET_B 0.00121202
125 *9172:RESET_B 6.76776e-05
126 *9103:RESET_B 0.000160398
127 *9101:RESET_B 0
128 *9108:RESET_B 0
129 *9102:RESET_B 0
130 *9171:RESET_B 2.01154e-05
131 *9170:RESET_B 0
132 *9175:RESET_B 0.000443897
133 *9095:RESET_B 0
134 *9088:RESET_B 0.00036331
135 *9089:RESET_B 0
136 *9029:RESET_B 0.000931341
137 *9031:RESET_B 0.00030285
138 *9037:RESET_B 4.20924e-05
139 *9033:RESET_B 5.91513e-05
140 *9024:RESET_B 0.0010912
141 *9028:RESET_B 0
142 *9025:RESET_B 1.09362e-05
143 *9027:RESET_B 0
144 *9204:X 0.00109577
145 *735:1602 0.000263973
146 *735:1598 0.00047532
147 *735:1596 0.000463214
148 *735:1594 0.000344375
149 *735:1590 0.000664109
150 *735:1576 0.000724704
151 *735:1553 0.00141062
152 *735:1542 0.00128845
153 *735:1530 0.000716813
154 *735:1514 0.00110109
155 *735:1503 0.000579212
156 *735:1491 0.000297688
157 *735:1481 0.000643987
158 *735:1469 0.000671804
159 *735:1462 0.000525636
160 *735:1452 0.000774573
161 *735:1416 0.00115448
162 *735:1406 0.000796532
163 *735:1382 0.000766026
164 *735:1364 0.000939312
165 *735:1350 0.000857671
166 *735:1340 0.000929162
167 *735:1306 0.000507035
168 *735:1279 0.00108409
169 *735:1266 0.00140365
170 *735:1258 0.000938163
171 *735:1221 0.000395713
172 *735:1201 0.000866464
173 *735:1189 0.000882856
174 *735:1187 0.00032773
175 *735:1169 0.000429144
176 *735:1165 0.000582674
177 *735:1147 0.000645596
178 *735:1130 0.00080921
179 *735:1126 0.000416443
180 *735:1112 0.000478598
181 *735:1102 0.000658488
182 *735:1095 0.000645283
183 *735:1089 0.000531515
184 *735:1082 0.000574876
185 *735:1075 0.00129644
186 *735:1067 0.00101099
187 *735:1011 0.000621302
188 *735:909 0.000415008
189 *735:892 0.000710903
190 *735:861 0.000445727
191 *735:859 0.000442319
192 *735:849 0.000425755
193 *735:847 0.000926844
194 *735:837 0.000579507
195 *735:811 0.000711364
196 *735:794 0.000154074
197 *735:760 0.00034694
198 *735:758 0.000778073
199 *735:750 0.000830219
200 *735:746 0.00130188
201 *735:736 0.000496951
202 *735:726 0.000369266
203 *735:707 0.000375877
204 *735:653 0.00045913
205 *735:627 0.000351216
206 *735:625 0.0010566
207 *735:608 0.000677019
208 *735:599 0.000115854
209 *735:597 0.000267954
210 *735:588 0.000294948
211 *735:564 0.000696064
212 *735:562 0.00037981
213 *735:560 0.000926538
214 *735:549 0.00028624
215 *735:542 0.000268971
216 *735:530 0.000361844
217 *735:519 0.000932625
218 *735:513 0.00133723
219 *735:473 0.000475958
220 *735:461 0.000728784
221 *735:455 0.000869255
222 *735:448 0.000737463
223 *735:436 0.000496655
224 *735:429 0.000159796
225 *735:419 0.000407433
226 *735:383 0.00017332
227 *735:373 0.00103491
228 *735:369 0.00133206
229 *735:358 0.000428446
230 *735:349 0.000214969
231 *735:342 0.000178072
232 *735:292 0.00060274
233 *735:290 0.000561527
234 *735:274 0.000895847
235 *735:270 0.000280061
236 *735:268 0.000576124
237 *735:264 0.0010047
238 *735:258 0.000911912
239 *735:254 0.00111715
240 *735:222 0.000321892
241 *735:215 0.000303454
242 *735:208 0.000318797
243 *735:198 0.000347984
244 *735:191 0.000413941
245 *735:185 0.000621986
246 *735:183 0.00118603
247 *735:163 0.000812055
248 *735:159 0.000524841
249 *735:155 0.000754874
250 *735:148 0.00020989
251 *735:131 0.00098009
252 *735:125 0.00124057
253 *735:121 0.00115862
254 *735:82 0.000344942
255 *735:80 0.000561345
256 *735:66 0.000485339
257 *735:41 0.00133584
258 *735:27 0.00111187
259 *735:21 0.00104965
260 *735:10 0.00120773
261 *9034:RESET_B *759:12 0.000158297
262 *9034:RESET_B *761:16 0
263 *9042:RESET_B *759:18 0
264 *9044:RESET_B *8700:A 4.94474e-05
265 *9044:RESET_B *742:73 7.6953e-05
266 *9057:RESET_B *745:61 0
267 *9071:RESET_B *8934:A1 4.78703e-05
268 *9071:RESET_B *8935:A1 8.3698e-05
269 *9074:RESET_B *739:34 0.000137256
270 *9074:RESET_B *748:18 0
271 *9077:RESET_B *8916:B 8.5225e-05
272 *9077:RESET_B *8930:B1 3.68862e-05
273 *9099:RESET_B *8933:A1 0
274 *9099:RESET_B *8934:A1 0.000304977
275 *9099:RESET_B *763:34 0.000199413
276 *9103:RESET_B *741:16 0.000359844
277 *9126:RESET_B *738:44 1.23607e-05
278 *9126:RESET_B *748:18 0
279 *9127:RESET_B *738:10 0
280 *9127:RESET_B *748:18 0
281 *9132:SET_B *8659:B 0
282 *9157:RESET_B *745:61 0
283 *9172:RESET_B *763:10 0
284 *9175:RESET_B *763:10 0
285 *735:191 *763:10 0.00025631
286 *735:198 *763:10 0.00035749
287 *735:208 *8939:B2 0.000187766
288 *735:208 *763:10 0.000201335
289 *735:215 *8939:B2 0.000132096
290 *735:222 *8946:B2 4.90071e-05
291 *735:222 *741:16 0.000185398
292 *735:369 *8947:A1_N 8.58178e-05
293 *735:369 *8947:A2_N 0
294 *735:369 *8948:C1 0
295 *735:373 *8950:A1 0.000426206
296 *735:383 *8934:A1 0.00012969
297 *735:383 *8935:A1 0.000243252
298 *735:419 *744:18 7.79101e-05
299 *735:429 *744:18 0.000115464
300 *735:436 *744:18 0.000371139
301 *735:448 *8912:B 0
302 *735:448 *8928:B1 0
303 *735:448 *8950:A1 0.000498114
304 *735:448 *8951:A4 0.000179241
305 *735:448 *739:59 0.000210459
306 *735:473 *738:10 0
307 *735:811 *8912:B 0
308 *735:811 *8914:B 0
309 *735:811 *8916:B 7.63204e-05
310 *735:837 *744:18 0.000165481
311 *735:892 *739:34 0.0003291
312 *735:1067 *757:22 0
313 *735:1075 *757:22 0
314 *735:1082 *757:22 0
315 *735:1095 *757:22 0
316 *735:1102 *8659:B 0
317 *735:1102 *757:22 0
318 *735:1165 *8739:A 0
319 *735:1165 *745:10 0.000163012
320 *735:1165 *745:42 0.000472612
321 *735:1189 *759:18 0
322 *735:1221 *742:73 6.73751e-05
323 *735:1258 *745:42 0
324 *735:1306 *745:42 0
325 *735:1590 *745:61 0
326 *735:1594 *745:61 4.59655e-05
327 *735:1596 *745:61 9.28188e-05
328 *735:1598 *745:61 0.000194157
329 *735:1602 *745:61 8.683e-05
330 *8507:D *735:1406 0
331 *8507:D *735:1416 0
332 *8508:C *735:1452 9.06764e-05
333 *8522:A3 *9091:RESET_B 5.16418e-05
334 *8522:A3 *735:125 4.82863e-05
335 *8534:A3 *735:155 0
336 *8535:A1 *9097:RESET_B 0.000123225
337 *8535:A2 *9097:RESET_B 6.03947e-06
338 *8535:A3 *9097:RESET_B 1.77176e-05
339 *8535:B2 *735:148 0
340 *8535:B2 *735:155 0
341 *8539:A1 *9175:RESET_B 1.52862e-05
342 *8539:A1 *735:163 0.000105841
343 *8540:A1 *9096:RESET_B 8.65905e-05
344 *8540:A1 *9097:RESET_B 8.23457e-05
345 *8540:A1 *735:163 0.000175082
346 *8541:A1 *9096:RESET_B 7.00685e-05
347 *8541:A1 *9097:RESET_B 2.49909e-05
348 *8541:A1 *735:159 0
349 *8541:A1 *735:163 0.000108647
350 *8541:B1 *735:163 0.000186099
351 *8544:A_N *9175:RESET_B 0.000116853
352 *8544:A_N *735:163 0.000101402
353 *8545:A1 *9094:RESET_B 5.83121e-06
354 *8545:A1 *9175:RESET_B 0.00011379
355 *8547:A *9077:RESET_B 0
356 *8547:C *9098:RESET_B 0
357 *8551:B *9098:RESET_B 2.49909e-05
358 *8554:A1 *735:268 0.000179015
359 *8555:A *9042:RESET_B 0.000482506
360 *8555:A *9131:SET_B 0.000112266
361 *8555:A *9134:RESET_B 0.000377158
362 *8555:A *735:1201 9.21168e-05
363 *8555:B *735:268 5.10957e-05
364 *8555:B *735:270 0.000132096
365 *8555:B *735:274 9.50342e-06
366 *8557:A *9042:RESET_B 3.00381e-05
367 *8557:A *9044:RESET_B 0
368 *8557:A *735:1221 0
369 *8559:A1 *9044:RESET_B 2.96334e-05
370 *8559:B1 *9044:RESET_B 9.8165e-05
371 *8589:A *9030:RESET_B 0
372 *8589:A *735:290 0
373 *8589:A *735:292 0
374 *8591:A_N *735:1165 0
375 *8597:A *9137:RESET_B 0.000188008
376 *8597:A *735:1258 8.53113e-06
377 *8597:A *735:1306 6.38291e-05
378 *8599:A *735:1165 0
379 *8602:A *735:1503 0
380 *8602:A *735:1514 2.33678e-05
381 *8614:A *735:1590 0.000140844
382 *8615:A *735:1594 9.37731e-05
383 *8617:B1 *9146:SET_B 8.46077e-05
384 *8620:A *735:1514 6.55406e-05
385 *8620:C *735:1514 2.30836e-05
386 *8622:C1 *9147:RESET_B 4.00541e-06
387 *8622:C1 *735:1594 4.24621e-05
388 *8625:A4 *735:1481 0
389 *8625:B1 *9151:RESET_B 4.70477e-05
390 *8625:B1 *735:1481 6.02202e-05
391 *8625:B1 *735:1491 0.000113745
392 *8626:A1 *9151:RESET_B 8.07672e-05
393 *8626:A1 *735:1503 0
394 *8626:A1 *735:1514 0
395 *8630:A2 *9144:SET_B 0.000153522
396 *8630:C1 *9152:RESET_B 4.31782e-05
397 *8632:A1 *735:1530 0.000193564
398 *8632:A3 *735:1530 5.83373e-05
399 *8633:A1 *735:1514 4.55864e-06
400 *8635:A1 *735:1530 0.000109786
401 *8635:A3 *735:1530 0
402 *8635:B1 *735:1530 0
403 *8639:B1 *735:1530 0.000211624
404 *8640:B2 *9154:RESET_B 0
405 *8640:B2 *735:1542 8.53113e-06
406 *8656:A1 *735:560 4.38278e-05
407 *8658:A *9160:RESET_B 8.6099e-05
408 *8658:A *735:562 8.52172e-05
409 *8658:A *735:707 0.000222813
410 *8660:A *735:1112 0
411 *8660:A *735:1126 0
412 *8661:A *735:1147 7.36562e-05
413 *8661:A *735:1165 2.86623e-05
414 *8661:B *9132:SET_B 0
415 *8661:B *9163:RESET_B 1.5913e-05
416 *8661:B *735:1130 0.000124895
417 *8661:B *735:1147 0
418 *8664:A *9161:RESET_B 0
419 *8673:A *9175:RESET_B 2.54606e-05
420 *8674:D1 *9175:RESET_B 0.000119898
421 *8678:A *9098:RESET_B 0
422 *8702:A1 *9071:RESET_B 1.13009e-05
423 *8707:C1 *735:837 0.000210961
424 *8707:C1 *735:847 5.83121e-06
425 *8708:A1 *9117:SET_B 0
426 *8709:A1 *735:549 0
427 *8709:A1 *735:726 0
428 *8709:A1 *735:736 0
429 *8709:B2 *735:837 8.30403e-05
430 *8710:B *9073:RESET_B 0.000267155
431 *8718:A1 *9044:RESET_B 4.18603e-06
432 *8720:B1 *735:892 0
433 *8721:A1 *9146:SET_B 0.00025508
434 *8721:A1 *735:519 4.21243e-05
435 *8721:B2 *735:513 8.97793e-05
436 *8723:A *9137:RESET_B 6.95505e-05
437 *8723:A *735:1187 0.000116158
438 *8727:C1 *735:849 6.63219e-06
439 *8738:A *735:1364 9.66021e-05
440 *8740:A *735:1165 0
441 *8741:A1 *735:1364 4.57347e-05
442 *8742:A *735:1306 2.59981e-05
443 *8774:A *735:1089 0.000153139
444 *8774:A *735:1095 9.67819e-05
445 *8807:B *735:290 0
446 *8808:B *9091:RESET_B 0
447 *8808:B *735:1011 0
448 *8809:A1_N *9024:RESET_B 6.01838e-05
449 *8809:A1_N *735:66 0.000139933
450 *8809:A1_N *735:80 7.25977e-05
451 *8809:B2 *9029:RESET_B 0.000178255
452 *8809:B2 *9031:RESET_B 0
453 *8809:B2 *735:80 0.000318473
454 *8812:B1 *735:41 0
455 *8815:A2_N *735:41 0.000181029
456 *8817:A1_N *9029:RESET_B 7.22354e-05
457 *8817:A2_N *735:121 1.52945e-05
458 *8821:B *735:125 0.000111285
459 *8821:B *735:1011 2.96426e-05
460 *8822:A1_N *9024:RESET_B 0
461 *8822:A1_N *735:80 7.4027e-05
462 *8822:B2 *735:121 0
463 *8829:C *9091:RESET_B 9.50342e-06
464 *8829:C *735:121 0
465 *8829:C *735:1011 6.52265e-05
466 *8830:A1_N *9029:RESET_B 7.54567e-05
467 *8830:A1_N *9031:RESET_B 0.000117428
468 *8830:A1_N *735:80 2.46007e-05
469 *8830:B2 *735:1011 0.00015829
470 *8838:A1 *735:1279 0.000249921
471 *8842:A1 *735:1279 4.7043e-05
472 *8846:A1 *9060:RESET_B 0
473 *8846:A1 *9061:RESET_B 0.000110403
474 *8847:A *9049:RESET_B 1.85674e-05
475 *8850:A1 *735:1279 1.01356e-05
476 *8851:B1_N *735:1406 0
477 *8852:A_N *9051:RESET_B 4.70477e-05
478 *8853:C *735:1416 0
479 *8855:A_N *735:1416 0
480 *8860:A1 *735:1481 0
481 *8860:S *9054:RESET_B 3.56242e-05
482 *8860:S *735:1416 0
483 *8860:S *735:1452 0
484 *8861:A *9054:RESET_B 3.79555e-05
485 *8861:A *735:1416 8.53113e-06
486 *8862:C *735:1452 9.5433e-05
487 *8866:B2 *9054:RESET_B 3.90292e-05
488 *8866:B2 *735:1452 1.07655e-05
489 *8867:A1 *735:1452 0
490 *8872:B *735:1462 0
491 *8873:B1 *735:1462 0.000140905
492 *8873:B1 *735:1469 0.000109009
493 *8875:A1 *735:1514 0
494 *8876:A *735:1462 1.73877e-05
495 *8876:A *735:1481 6.95335e-05
496 *8883:A1_N *9057:RESET_B 1.43521e-05
497 *8883:A1_N *735:1598 0
498 *8883:A1_N *735:1602 0
499 *8883:B2 *9059:RESET_B 0
500 *8883:B2 *735:1598 0
501 *8890:A2 *9060:RESET_B 4.94404e-05
502 *8890:A2 *9061:RESET_B 6.81421e-05
503 *8897:A3 *735:419 0
504 *8911:B2 *735:736 0
505 *8911:B2 *735:746 0
506 *8915:B2 *9068:SET_B 8.12264e-05
507 *8917:A3 *9119:SET_B 5.23362e-05
508 *8919:B2 *735:560 7.50257e-05
509 *8928:A3 *735:448 0.00024846
510 *8929:A3 *9076:RESET_B 0.000264037
511 *8929:A3 *735:513 3.99879e-05
512 *8933:B2 *9098:RESET_B 5.23362e-05
513 *8937:A *735:859 8.40213e-05
514 *8937:D *735:859 7.38973e-05
515 *8937:D *735:861 5.06911e-05
516 *8938:A *735:859 7.63204e-05
517 *8939:A1 *735:215 9.29751e-06
518 *8939:A1 *735:222 2.37321e-05
519 *8939:B1 *735:215 0.000130065
520 *8939:B1 *735:222 7.01621e-05
521 *8943:A2 *9074:RESET_B 0
522 *8944:A1 *9106:RESET_B 4.24575e-05
523 *8948:A1 *735:369 0.000120186
524 *8948:A1 *735:419 0.000173533
525 *8948:B1 *735:369 0.000164189
526 *8949:B2 *9062:RESET_B 7.69078e-05
527 *8951:A1 *9077:RESET_B 0
528 *8951:A1 *735:419 2.64331e-05
529 *8951:A1 *735:448 0
530 *8951:A1 *735:811 0
531 *8957:B1 *9116:SET_B 4.30304e-05
532 *8957:B1 *735:530 5.53549e-06
533 *8979:B1 *735:909 2.66935e-05
534 *8980:A0 *735:909 0
535 *8982:A0 *9129:RESET_B 3.51752e-05
536 *9001:A2 *735:290 0
537 *9001:B1 *735:290 5.13029e-05
538 *9001:C1 *9134:RESET_B 0
539 *9001:C1 *735:290 0
540 *9002:A1 *9160:RESET_B 0
541 *9002:A1 *735:562 0
542 *9003:A1 *735:562 4.75576e-05
543 *9003:A1 *735:564 4.44896e-05
544 *9003:B1 *9144:SET_B 0.000153522
545 *9007:B1 *9145:SET_B 8.34323e-05
546 *9008:A1 *9164:RESET_B 1.83756e-05
547 *9008:A1 *735:1279 1.61461e-05
548 *9013:A2 *735:625 8.88715e-05
549 *9013:B1 *735:625 5.05437e-05
550 *9014:B_N *735:198 0
551 *9020:C *9174:RESET_B 0.000123225
552 *9020:C *735:185 0.000122325
553 *9021:A1 *9174:RESET_B 5.17287e-05
554 *9022:B1 *735:268 4.75576e-05
555 *9023:A1 *735:358 0
556 *9023:A1 *735:369 0
557 *9023:B1 *735:274 0
558 *9024:D *735:66 1.52491e-05
559 *9024:D *735:80 0
560 *9026:CLK *9026:RESET_B 1.16578e-05
561 *9026:CLK *735:27 0.000577239
562 *9026:D *9026:RESET_B 3.00381e-05
563 *9027:CLK *735:27 0
564 *9027:D *735:21 0
565 *9029:D *735:121 9.07358e-05
566 *9034:CLK *9034:RESET_B 1.4389e-05
567 *9034:D *9034:RESET_B 6.60261e-06
568 *9035:CLK *9035:RESET_B 7.00889e-06
569 *9035:CLK *735:1067 9.91257e-05
570 *9041:CLK *9041:RESET_B 0.000254302
571 *9042:CLK *9134:RESET_B 3.77879e-05
572 *9042:D *9134:RESET_B 5.97222e-05
573 *9045:D *735:258 3.00381e-05
574 *9046:D *735:1279 0
575 *9047:CLK *735:1279 3.64622e-05
576 *9048:D *735:1364 9.46111e-06
577 *9049:D *735:1350 8.53113e-06
578 *9049:D *735:1364 9.14049e-05
579 *9050:D *9050:RESET_B 0.00012657
580 *9050:D *735:1406 0
581 *9051:D *735:1406 4.18603e-06
582 *9051:D *735:1416 3.69334e-05
583 *9052:D *9052:RESET_B 3.00381e-05
584 *9054:D *9054:RESET_B 6.28765e-05
585 *9058:D *9058:RESET_B 4.70477e-05
586 *9058:D *735:1602 0
587 *9062:D *9062:RESET_B 4.37586e-05
588 *9071:D *9071:RESET_B 7.00889e-06
589 *9073:CLK *9073:RESET_B 8.40269e-05
590 *9073:CLK *735:419 9.61414e-05
591 *9073:CLK *735:429 5.57814e-05
592 *9073:CLK *735:436 0.000133749
593 *9073:D *9073:RESET_B 0.000112855
594 *9074:D *9074:RESET_B 0.000108985
595 *9075:D *735:461 0.000119016
596 *9076:CLK *9076:RESET_B 0.000188916
597 *9076:CLK *735:455 0
598 *9076:D *9076:RESET_B 8.0246e-05
599 *9077:D *9077:RESET_B 3.86607e-05
600 *9078:CLK *9077:RESET_B 0
601 *9078:D *9078:RESET_B 8.9245e-05
602 *9079:CLK *9032:RESET_B 4.82919e-05
603 *9081:CLK *9051:RESET_B 8.07672e-05
604 *9082:CLK *9056:RESET_B 5.0751e-05
605 *9082:D *735:1481 0
606 *9083:D *735:1481 0
607 *9083:D *735:1491 0
608 *9083:D *735:1530 0
609 *9084:CLK *9041:RESET_B 6.36656e-05
610 *9084:CLK *735:760 9.24049e-05
611 *9086:CLK *9052:RESET_B 0.000233984
612 *9088:D *735:163 0
613 *9089:D *9088:RESET_B 0.000137571
614 *9089:D *735:148 0
615 *9090:D *9093:RESET_B 0
616 *9091:D *735:125 4.40446e-05
617 *9093:CLK *9093:RESET_B 0
618 *9093:CLK *735:1011 0
619 *9095:D *735:155 0
620 *9095:D *735:159 0
621 *9095:D *735:163 1.1561e-05
622 *9097:D *9097:RESET_B 0.000124895
623 *9098:CLK *9045:RESET_B 1.23706e-05
624 *9098:CLK *735:258 6.02055e-05
625 *9098:CLK *735:264 7.70304e-07
626 *9098:D *9098:RESET_B 7.8198e-05
627 *9100:CLK *735:373 2.75229e-05
628 *9101:D *735:215 6.73665e-05
629 *9101:D *735:222 3.90389e-05
630 *9102:D *735:215 0
631 *9104:D *9074:RESET_B 0
632 *9104:D *735:847 0.000107112
633 *9105:D *9126:RESET_B 8.53021e-05
634 *9105:D *735:473 8.53113e-06
635 *9110:CLK *735:342 0
636 *9110:CLK *735:349 0
637 *9112:CLK *735:369 0
638 *9112:D *735:358 0
639 *9113:CLK *735:1147 6.10014e-05
640 *9113:CLK *735:1165 8.34426e-05
641 *9122:D *9122:RESET_B 5.23362e-05
642 *9128:D *9128:RESET_B 8.68646e-05
643 *9128:D *735:909 5.13155e-05
644 *9130:CLK *9130:RESET_B 5.43792e-06
645 *9134:CLK *735:290 0
646 *9134:D *9134:RESET_B 6.70694e-05
647 *9136:D *9136:RESET_B 4.70393e-05
648 *9137:D *9137:RESET_B 7.53146e-05
649 *9137:D *735:1187 2.20753e-05
650 *9138:D *9138:RESET_B 5.82889e-06
651 *9138:D *735:1187 0
652 *9138:D *735:1189 0
653 *9139:D *9146:SET_B 0
654 *9142:CLK *9137:RESET_B 4.66108e-05
655 *9146:D *9146:SET_B 3.82741e-05
656 *9148:D *9148:RESET_B 4.82919e-05
657 *9148:D *735:1594 0.000246105
658 *9148:D *735:1596 0.000206824
659 *9153:CLK *735:1514 3.64998e-06
660 *9156:D *9156:RESET_B 2.47313e-05
661 *9156:D *9157:RESET_B 8.5225e-05
662 *9156:D *735:1590 0
663 *9157:D *9157:RESET_B 5.23362e-05
664 *9157:D *735:1590 3.67779e-05
665 *9158:D *9158:RESET_B 0
666 *9159:D *9159:RESET_B 7.94826e-05
667 *9161:D *9161:RESET_B 0
668 *9163:CLK *9132:SET_B 0.00010506
669 *9163:CLK *735:1147 2.4997e-05
670 *9163:D *9132:SET_B 8.53113e-06
671 *9165:D *735:1266 5.20968e-05
672 *9165:D *735:1279 0.000127508
673 *9168:D *735:625 0.000124007
674 *9170:D *735:198 5.39718e-05
675 *9171:D *9171:RESET_B 4.2463e-05
676 *9172:D *9172:RESET_B 0.000140968
677 *9172:D *735:191 0
678 *9175:D *9175:RESET_B 0.000267584
679 *9184:A *9146:SET_B 1.98158e-05
680 *9184:A *735:564 0.000113531
681 *9189:A *9132:SET_B 0
682 *9190:A *735:1102 0
683 *9190:A *735:1112 0
684 *59:16 *735:1416 0
685 *59:91 *9060:RESET_B 2.03321e-05
686 *59:91 *9061:RESET_B 0
687 *189:74 *9092:SET_B 0.000123806
688 *190:12 *735:274 0
689 *190:61 *735:163 4.40358e-05
690 *193:20 *9097:RESET_B 0.000166248
691 *204:10 *735:1416 9.45784e-05
692 *204:18 *9054:RESET_B 1.14361e-05
693 *204:18 *735:1416 0.000202993
694 *205:12 *735:1452 7.21296e-06
695 *208:23 *9123:RESET_B 7.89689e-05
696 *208:23 *735:861 9.67927e-05
697 *231:14 *735:163 0
698 *234:22 *9064:SET_B 0
699 *234:22 *9114:SET_B 0
700 *234:22 *9140:SET_B 0
701 *234:22 *735:627 0
702 *234:34 *735:560 0.000109836
703 *234:135 *735:1165 1.97849e-05
704 *237:46 *735:268 0
705 *237:71 *735:1266 0
706 *237:71 *735:1279 0
707 *239:36 *9044:RESET_B 4.54998e-05
708 *239:36 *735:268 1.44259e-05
709 *239:50 *9134:RESET_B 0
710 *241:8 *9044:RESET_B 1.37328e-05
711 *275:95 *9117:SET_B 0.000222054
712 *275:95 *735:653 0.000120186
713 *275:106 *9140:SET_B 0.000196634
714 *275:106 *735:1306 0.000134424
715 *275:108 *735:1306 0.000154877
716 *279:18 *9153:RESET_B 5.05437e-05
717 *279:18 *735:1514 6.00232e-05
718 *291:18 *735:1590 0.000220493
719 *291:18 *735:1594 1.07797e-05
720 *291:29 *735:1590 9.43857e-05
721 *292:28 *735:562 1.44259e-05
722 *292:74 *9146:SET_B 5.82254e-05
723 *292:74 *735:588 6.20952e-05
724 *292:74 *735:597 3.56184e-05
725 *292:130 *735:1594 6.28765e-05
726 *292:142 *9147:RESET_B 1.83756e-05
727 *292:142 *735:1594 7.89689e-05
728 *293:42 *735:1590 0.000780944
729 *293:42 *735:1594 8.79281e-05
730 *293:59 *735:1590 0.000144909
731 *293:70 *735:1590 5.02126e-06
732 *297:10 *735:1514 0.000138273
733 *297:21 *735:1514 0.00021154
734 *297:42 *735:1530 0
735 *345:54 *735:837 8.23457e-05
736 *345:87 *735:847 9.02174e-05
737 *347:49 *9073:RESET_B 0.000102354
738 *347:57 *735:849 0
739 *347:57 *735:892 0
740 *347:85 *735:859 0.000291371
741 *351:12 *735:513 0.000193806
742 *351:16 *9119:SET_B 8.17755e-05
743 *351:16 *735:513 2.90344e-05
744 *351:16 *735:794 1.54862e-05
745 *393:29 *9024:RESET_B 0
746 *393:29 *735:41 0
747 *431:30 *9025:RESET_B 4.24575e-05
748 *431:30 *735:27 0
749 *431:30 *735:41 0
750 *431:56 *9031:RESET_B 0.000128103
751 *431:56 *9037:RESET_B 2.20753e-05
752 *431:58 *735:80 0
753 *446:18 *735:1011 4.50017e-05
754 *449:20 *9093:RESET_B 0
755 *449:20 *735:1011 0
756 *449:32 *735:1011 0.000241483
757 *452:48 *735:41 3.47837e-05
758 *452:56 *735:41 0
759 *452:62 *9024:RESET_B 0
760 *452:62 *735:41 0
761 *463:44 *9059:RESET_B 2.40101e-05
762 *463:90 *9061:RESET_B 0.000196465
763 *480:12 *9054:RESET_B 6.74392e-05
764 *502:36 *735:419 0.000174529
765 *502:49 *735:419 7.13722e-05
766 *503:30 *9099:RESET_B 4.40889e-05
767 *503:30 *9100:RESET_B 2.20753e-05
768 *503:30 *735:373 0.000180285
769 *505:22 *735:419 5.8529e-05
770 *505:97 *735:419 0.000106576
771 *512:48 *9119:SET_B 0.000242779
772 *512:48 *735:513 8.3907e-05
773 *512:48 *735:794 3.46196e-05
774 *514:20 *735:519 0.000171211
775 *518:10 *9119:SET_B 0.000121752
776 *519:14 *9119:SET_B 0.000222422
777 *525:28 *735:847 0.000271333
778 *525:96 *9074:RESET_B 0
779 *527:64 *735:222 3.17506e-05
780 *527:90 *735:859 0
781 *531:80 *735:519 4.36185e-05
782 *534:59 *735:859 0.000509781
783 *534:59 *735:861 6.04396e-05
784 *534:68 *735:849 0.000195548
785 *534:68 *735:859 0.000147958
786 *534:68 *735:892 0.000184059
787 *537:28 *735:208 0
788 *537:82 *9129:RESET_B 0
789 *537:82 *735:909 0
790 *537:130 *735:909 0
791 *579:52 *735:369 0
792 *579:52 *735:419 0
793 *580:8 *9173:RESET_B 1.1392e-05
794 *581:23 *9134:RESET_B 0
795 *581:57 *735:274 0
796 *581:57 *735:290 0
797 *587:29 *9024:RESET_B 0.000278111
798 *588:10 *9034:RESET_B 6.60261e-06
799 *588:10 *735:1067 7.23602e-05
800 *589:12 *735:1075 6.55328e-05
801 *591:22 *735:80 2.66935e-05
802 *593:14 *735:1082 9.54399e-05
803 *593:14 *735:1089 9.06521e-05
804 *595:8 *735:41 8.97486e-05
805 *595:21 *735:41 5.57814e-05
806 *596:16 *9032:RESET_B 0.000158782
807 *597:8 *9032:RESET_B 5.4003e-05
808 *597:8 *735:21 0
809 *599:6 *735:121 0
810 *599:35 *9029:RESET_B 3.96653e-05
811 *599:91 *9030:RESET_B 1.70935e-05
812 *602:14 *9034:RESET_B 7.23602e-05
813 *604:16 *9114:SET_B 5.13155e-05
814 *605:10 *9065:SET_B 5.23485e-05
815 *605:66 *9160:RESET_B 4.51129e-05
816 *605:66 *735:707 2.20753e-05
817 *606:52 *9158:RESET_B 0.000424525
818 *606:52 *9162:RESET_B 0.00015737
819 *607:6 *735:750 9.64638e-06
820 *607:14 *9068:SET_B 4.40899e-05
821 *607:14 *735:760 3.77199e-05
822 *607:48 *735:750 0.000246193
823 *608:33 *9066:SET_B 7.00685e-05
824 *608:33 *9068:SET_B 8.375e-05
825 *608:33 *9158:RESET_B 0.000168195
826 *608:33 *9162:RESET_B 5.9189e-05
827 *609:14 *9068:SET_B 9.37731e-05
828 *610:15 *735:560 0.000443048
829 *610:21 *9166:SET_B 0.000100156
830 *610:21 *735:562 5.47337e-05
831 *610:21 *735:564 8.9648e-05
832 *610:21 *735:588 3.98952e-05
833 *610:21 *735:597 0.000325844
834 *610:21 *735:599 5.92191e-05
835 *610:21 *735:608 0.000157595
836 *611:14 *9114:SET_B 0.000188502
837 *612:42 *9145:SET_B 0.000150952
838 *613:12 *9117:SET_B 7.26629e-05
839 *613:16 *9064:SET_B 0
840 *613:16 *9114:SET_B 0
841 *613:16 *9117:SET_B 0.000328338
842 *613:16 *735:627 0
843 *613:16 *735:653 6.55406e-05
844 *615:45 *735:519 6.43496e-05
845 *615:70 *9146:SET_B 0.000444781
846 *615:70 *735:519 0.000462744
847 *616:8 *9120:SET_B 3.74308e-05
848 *616:54 *735:530 0
849 *617:25 *735:530 0.000116569
850 *617:25 *735:542 0
851 *617:25 *735:549 0
852 *619:14 *9064:SET_B 7.73437e-06
853 *619:14 *735:627 0
854 *619:56 *9064:SET_B 6.03522e-05
855 *620:10 *9132:SET_B 0.000116158
856 *620:10 *9165:SET_B 0.000205925
857 *620:10 *735:1130 0.000308909
858 *620:10 *735:1340 2.66586e-05
859 *621:12 *9122:RESET_B 5.92112e-05
860 *624:16 *735:1462 0
861 *624:16 *735:1469 0
862 *627:14 *9057:RESET_B 0
863 *627:14 *735:1602 0
864 *632:21 *9049:RESET_B 3.86529e-05
865 *633:8 *735:1406 5.83121e-06
866 *633:23 *735:1406 0
867 *635:10 *9052:RESET_B 6.23204e-05
868 *636:8 *9053:RESET_B 8.65905e-05
869 *636:16 *735:1416 7.21296e-06
870 *636:42 *9054:RESET_B 0
871 *637:29 *735:1452 3.05807e-05
872 *640:8 *9137:RESET_B 0.000111909
873 *640:8 *735:1165 7.28241e-05
874 *640:8 *735:1169 2.30292e-05
875 *645:10 *735:564 5.84456e-05
876 *645:12 *735:564 2.15594e-05
877 *647:20 *9146:SET_B 5.8023e-05
878 *647:20 *735:564 8.24798e-05
879 *652:52 *9157:RESET_B 6.52819e-05
880 *654:10 *9159:RESET_B 4.66108e-05
881 *657:8 *9149:RESET_B 4.24575e-05
882 *657:25 *735:1491 0
883 *657:25 *735:1503 0
884 *657:25 *735:1514 0.00010052
885 *658:23 *735:1514 1.94723e-05
886 *658:47 *735:1514 0.00011852
887 *659:27 *735:1491 0
888 *660:42 *735:1530 0.000113821
889 *662:18 *735:1530 0
890 *665:10 *735:597 0.000498498
891 *665:10 *735:599 0.000117825
892 *665:10 *735:608 3.21271e-05
893 *665:45 *735:1165 0
894 *665:45 *735:1258 3.76596e-05
895 *665:45 *735:1306 1.1561e-05
896 *666:10 *9140:SET_B 5.51158e-05
897 *666:12 *9140:SET_B 4.41463e-05
898 *666:12 *735:1306 0.000224648
899 *666:14 *735:1165 0
900 *666:14 *735:1306 7.21296e-06
901 *667:8 *9133:RESET_B 9.36949e-05
902 *668:10 *735:1350 0
903 *670:8 *9138:RESET_B 9.30977e-05
904 *671:14 *735:274 9.3062e-06
905 *671:14 *735:290 4.94326e-05
906 *674:12 *9097:RESET_B 6.31816e-05
907 *674:12 *735:155 0.00010816
908 *674:12 *735:159 0
909 *674:12 *735:163 0
910 *675:29 *9097:RESET_B 2.49909e-05
911 *677:90 *9098:RESET_B 0
912 *677:90 *735:268 0
913 *678:6 *9088:RESET_B 8.65905e-05
914 *682:8 *735:191 0
915 *682:8 *735:198 0
916 *682:44 *735:183 0.00015829
917 *682:52 *9175:RESET_B 1.67513e-05
918 *682:52 *735:183 0.000183738
919 *683:45 *735:183 2.88519e-05
920 *683:56 *735:183 0.000252977
921 *684:51 *735:185 8.57406e-05
922 *686:8 *735:215 0
923 *688:39 *9074:RESET_B 0
924 *689:8 *9126:RESET_B 0
925 *689:14 *9074:RESET_B 0.0001249
926 *689:14 *9126:RESET_B 0
927 *691:6 *9107:RESET_B 7.94826e-05
928 *691:6 *735:892 8.65961e-05
929 *691:25 *9129:RESET_B 0.00011852
930 *691:25 *735:909 6.56448e-06
931 *693:21 *9123:RESET_B 0.000141599
932 *693:21 *735:861 0.000191543
933 *696:12 *9126:RESET_B 4.4133e-05
934 *697:10 *9127:RESET_B 8.24372e-05
935 *698:14 *9128:RESET_B 0
936 *698:14 *735:909 0
937 *698:24 *735:909 1.37895e-05
938 *699:14 *9129:RESET_B 0
939 *704:10 *735:342 0.000233925
940 *704:10 *735:349 0.000117825
941 *704:10 *735:358 0.000210144
942 *705:14 *735:258 0.000347029
943 *707:31 *9166:SET_B 0.000100156
944 *707:31 *735:608 8.28738e-05
945 *707:35 *9146:SET_B 3.82072e-05
946 *707:103 *735:436 0.000139252
947 *707:103 *735:837 0.000174984
948 *707:132 *9042:RESET_B 0
949 *707:132 *9137:RESET_B 0.000181376
950 *707:132 *735:1187 0
951 *707:132 *735:1189 0
952 *707:134 *9042:RESET_B 0
953 *707:221 *9131:SET_B 0.00019311
954 *708:16 *9091:RESET_B 7.1301e-06
955 *708:16 *735:121 3.6677e-05
956 *708:64 *735:125 2.72908e-05
957 *708:68 *735:125 1.83847e-05
958 *708:68 *735:131 5.58206e-05
959 *708:98 *9088:RESET_B 0
960 *708:157 *735:1011 0
961 *709:30 *735:461 0.000108038
962 *709:30 *735:473 2.94275e-05
963 *709:36 *9128:RESET_B 2.65337e-05
964 *710:46 *9077:RESET_B 7.25921e-05
965 *711:62 *735:625 3.81908e-06
966 *712:63 *9053:RESET_B 0.000226276
967 *713:162 *9066:SET_B 0.000119066
968 *714:36 *9148:RESET_B 3.77915e-05
969 *714:118 *9159:RESET_B 2.91561e-06
970 *714:138 *9159:RESET_B 0.000126584
971 *714:145 *9159:RESET_B 5.70345e-05
972 *714:158 *9159:RESET_B 2.96334e-05
973 *714:158 *735:1576 5.02604e-05
974 *714:171 *735:1542 0
975 *714:171 *735:1553 0
976 *715:18 *9024:RESET_B 0.000129728
977 *715:18 *9031:RESET_B 0
978 *715:22 *9024:RESET_B 0.000185405
979 *715:35 *9025:RESET_B 2.40101e-05
980 *715:35 *735:27 0
981 *715:35 *735:41 0
982 *715:88 *9030:RESET_B 0
983 *715:101 *735:290 0
984 *715:101 *735:292 0
985 *716:14 *9174:RESET_B 0.000219351
986 *716:14 *735:254 0.000614456
987 *716:24 *9174:RESET_B 6.69341e-05
988 *716:24 *9175:RESET_B 4.54654e-05
989 *716:34 *9172:RESET_B 8.07616e-05
990 *716:83 *735:342 0
991 *717:67 *9134:RESET_B 7.83084e-05
992 *717:67 *735:268 0.000106862
993 *717:67 *735:270 3.38982e-05
994 *718:16 *9032:RESET_B 0.000174933
995 *720:36 *9137:RESET_B 0.000117787
996 *720:36 *735:1187 4.11729e-05
997 *721:20 *735:1130 7.10866e-05
998 *721:24 *735:1130 0.000108761
999 *721:70 *9169:RESET_B 4.24575e-05
1000 *721:92 *9048:RESET_B 2.46073e-05
1001 *721:92 *9050:RESET_B 0.000141323
1002 *721:92 *735:1364 0.000177483
1003 *721:92 *735:1382 7.43782e-05
1004 *721:109 *9050:RESET_B 2.48468e-05
1005 *724:8 *9098:RESET_B 2.40185e-05
1006 *731:12 *9076:RESET_B 0.000150653
1007 *731:12 *735:448 0.000240476
1008 *731:12 *735:461 4.82863e-05
1009 *734:10 *735:264 3.57317e-05
*RES
1 *9204:X *735:10 20.82 
2 *735:10 *9027:RESET_B 2 
3 *735:10 *735:21 3.74 
4 *735:21 *735:27 14.225 
5 *735:27 *9025:RESET_B 2.3975 
6 *735:27 *735:41 7.29 
7 *735:41 *9028:RESET_B 2 
8 *735:41 *9024:RESET_B 20.8725 
9 *9024:RESET_B *735:66 4.4 
10 *735:66 *9033:RESET_B 2.7425 
11 *735:66 *735:80 6.78 
12 *735:80 *735:82 2 
13 *735:82 *9037:RESET_B 0.7575 
14 *735:82 *9031:RESET_B 9.85 
15 *735:80 *9029:RESET_B 7.3025 
16 *9029:RESET_B *735:121 12.2825 
17 *735:121 *735:125 7.625 
18 *735:125 *735:131 10.715 
19 *735:131 *9089:RESET_B 2 
20 *735:131 *9088:RESET_B 6.7775 
21 *9088:RESET_B *735:148 3.635 
22 *735:148 *9095:RESET_B 2 
23 *735:148 *735:155 2.2725 
24 *735:155 *735:159 1.41 
25 *735:159 *735:163 9.6225 
26 *735:163 *9175:RESET_B 10.1525 
27 *9175:RESET_B *735:183 7.93 
28 *735:183 *735:185 3.555 
29 *735:185 *735:191 6.395 
30 *735:191 *9170:RESET_B 2 
31 *735:191 *735:198 4.185 
32 *735:198 *9171:RESET_B 2.3975 
33 *735:198 *735:208 4.44 
34 *735:208 *9102:RESET_B 2 
35 *735:208 *735:215 4.185 
36 *735:215 *9108:RESET_B 2 
37 *735:215 *735:222 4.185 
38 *735:222 *9101:RESET_B 2 
39 *735:222 *9103:RESET_B 6.185 
40 *735:185 *9172:RESET_B 5.8675 
41 *735:183 *9174:RESET_B 10.3275 
42 *9174:RESET_B *735:254 8.3325 
43 *735:254 *735:258 8.745 
44 *735:258 *735:264 5.915 
45 *735:264 *735:268 8.46 
46 *735:268 *735:270 1.635 
47 *735:270 *735:274 3.36 
48 *735:274 *9092:SET_B 5.0375 
49 *735:274 *735:290 8.01 
50 *735:290 *735:292 1.38 
51 *735:292 *9030:RESET_B 10.265 
52 *735:292 *9176:RESET_B 2 
53 *735:290 *9143:RESET_B 2 
54 *735:270 *9177:RESET_B 2 
55 *735:268 *9173:RESET_B 2.7425 
56 *735:264 *9098:RESET_B 5.9075 
57 *735:258 *9045:RESET_B 0.3975 
58 *735:254 *735:342 4.655 
59 *735:342 *9111:RESET_B 2 
60 *735:342 *735:349 1.38 
61 *735:349 *9110:RESET_B 2 
62 *735:349 *735:358 3.36 
63 *735:358 *9112:RESET_B 2 
64 *735:358 *735:369 5.76 
65 *735:369 *735:373 11.075 
66 *735:373 *9100:RESET_B 0.7575 
67 *9100:RESET_B *735:383 4.91 
68 *735:383 *9072:RESET_B 2 
69 *735:383 *9071:RESET_B 3.8825 
70 *735:373 *9099:RESET_B 10.69 
71 *735:369 *735:419 8.25 
72 *735:419 *9062:RESET_B 2.7425 
73 *735:419 *735:429 1.38 
74 *735:429 *9109:RESET_B 2 
75 *735:429 *735:436 4.44 
76 *735:436 *9073:RESET_B 6.5525 
77 *9073:RESET_B *735:448 12.815 
78 *735:448 *9075:RESET_B 2 
79 *9075:RESET_B *735:455 0.3075 
80 *735:455 *735:461 8.505 
81 *735:461 *735:473 4.8875 
82 *735:473 *9126:RESET_B 4.67 
83 *735:473 *9127:RESET_B 5.21 
84 *735:461 *9105:RESET_B 0.5625 
85 *735:455 *9076:RESET_B 8.2575 
86 *9076:RESET_B *735:513 12.365 
87 *735:513 *735:519 2.786 
88 *735:519 *9116:SET_B 2.9975 
89 *735:519 *735:530 3.9975 
90 *735:530 *9120:SET_B 3.4475 
91 *735:530 *735:542 1.125 
92 *735:542 *9121:SET_B 2 
93 *735:542 *735:549 2.91 
94 *735:549 *9070:SET_B 2 
95 *9070:SET_B *735:560 14.4875 
96 *735:560 *735:562 3.93 
97 *735:562 *735:564 4.185 
98 *735:564 *9146:SET_B 9.19143 
99 *9146:SET_B *735:588 3.38 
100 *735:588 *9139:SET_B 2 
101 *735:588 *735:597 7.44 
102 *735:597 *735:599 1.38 
103 *735:599 *9168:SET_B 2 
104 *735:599 *735:608 2.34 
105 *735:608 *9166:SET_B 3.125 
106 *735:608 *735:625 11.815 
107 *735:625 *735:627 2.145 
108 *735:627 *9114:SET_B 6.635 
109 *735:627 *9115:SET_B 2 
110 *735:625 *9064:SET_B 7.3025 
111 *9064:SET_B *735:653 3.38 
112 *735:653 *9063:SET_B 2 
113 *735:653 *9117:SET_B 11.8025 
114 *735:597 *9167:SET_B 2 
115 *735:564 *9145:SET_B 3.4325 
116 *735:562 *9144:SET_B 3.4325 
117 *735:560 *9160:RESET_B 4.6325 
118 *9160:RESET_B *735:707 7.0525 
119 *735:707 *9162:RESET_B 1.4325 
120 *735:707 *9158:RESET_B 9.28 
121 *735:549 *735:726 1.38 
122 *735:726 *9065:SET_B 3.4325 
123 *735:726 *735:736 2.91 
124 *735:736 *9066:SET_B 3.0875 
125 *735:736 *735:746 4.185 
126 *735:746 *735:750 13.145 
127 *735:750 *9067:SET_B 0.7425 
128 *735:750 *735:758 2 
129 *735:758 *735:760 2.91 
130 *735:760 *9068:SET_B 6.1925 
131 *735:760 *9069:SET_B 2 
132 *735:758 *9041:RESET_B 12.4025 
133 *735:746 *9161:RESET_B 6.185 
134 *735:513 *735:794 0.4875 
135 *735:794 *9118:SET_B 2 
136 *735:794 *9119:SET_B 7.0325 
137 *735:448 *735:811 5.715 
138 *735:811 *9078:RESET_B 3.4325 
139 *735:811 *9077:RESET_B 7.3775 
140 *735:436 *735:837 7.7 
141 *735:837 *735:847 9.485 
142 *735:847 *735:849 2.4 
143 *735:849 *735:859 13.165 
144 *735:859 *735:861 3.93 
145 *735:861 *9123:RESET_B 3.635 
146 *735:861 *9130:RESET_B 5.5025 
147 *735:859 *9124:RESET_B 2 
148 *735:849 *9125:RESET_B 2 
149 *735:847 *735:892 11.15 
150 *735:892 *9107:RESET_B 0.7425 
151 *9107:RESET_B *9129:RESET_B 8.185 
152 *735:892 *735:909 5.93 
153 *735:909 *9106:RESET_B 2.3975 
154 *735:909 *9128:RESET_B 5.1575 
155 *735:837 *9104:RESET_B 0.3075 
156 *9104:RESET_B *9074:RESET_B 13.8775 
157 *735:163 *9094:RESET_B 2.7425 
158 *735:159 *9096:RESET_B 3.32 
159 *735:155 *9097:RESET_B 10.625 
160 *735:125 *9122:RESET_B 5.89 
161 *735:121 *9091:RESET_B 2.87 
162 *9091:RESET_B *735:1011 10.4975 
163 *735:1011 *9090:RESET_B 2 
164 *735:1011 *9093:RESET_B 3.38 
165 *735:21 *9026:RESET_B 2.8125 
166 *9026:RESET_B *9032:RESET_B 13.5325 
167 *9032:RESET_B *9034:RESET_B 18.8875 
168 *9034:RESET_B *735:1067 7.225 
169 *735:1067 *735:1075 14.435 
170 *735:1075 *9036:RESET_B 2 
171 *735:1075 *735:1082 8.265 
172 *735:1082 *9039:RESET_B 2 
173 *735:1082 *735:1089 2.7825 
174 *735:1089 *735:1095 6.3975 
175 *735:1095 *9040:RESET_B 2 
176 *735:1095 *735:1102 4.185 
177 *735:1102 *9133:RESET_B 3.7775 
178 *735:1102 *735:1112 4.695 
179 *735:1112 *9163:RESET_B 3.0125 
180 *735:1112 *735:1126 3.635 
181 *735:1126 *735:1130 6.935 
182 *735:1130 *9132:SET_B 15.405 
183 *735:1130 *735:1147 1.89 
184 *735:1147 *9131:SET_B 3.7775 
185 *735:1147 *735:1165 15.545 
186 *735:1165 *735:1169 0.81 
187 *735:1169 *9137:RESET_B 12.5125 
188 *9137:RESET_B *735:1187 4.0325 
189 *735:1187 *735:1189 2.655 
190 *735:1189 *9042:RESET_B 14.6375 
191 *9042:RESET_B *735:1201 1.7925 
192 *735:1201 *9134:RESET_B 17.1925 
193 *735:1201 *735:1221 3.89 
194 *735:1221 *9043:RESET_B 2 
195 *735:1221 *9044:RESET_B 7.8275 
196 *735:1189 *9138:RESET_B 3.4325 
197 *735:1187 *9136:RESET_B 2.7425 
198 *735:1169 *735:1258 2.87 
199 *735:1258 *735:1266 11.44 
200 *735:1266 *9046:RESET_B 2 
201 *735:1266 *735:1279 14.465 
202 *735:1279 *9061:RESET_B 9.2725 
203 *9061:RESET_B *9060:RESET_B 5.635 
204 *735:1279 *9047:RESET_B 0.3975 
205 *735:1258 *735:1306 8.01 
206 *735:1306 *9141:SET_B 2 
207 *735:1306 *9140:SET_B 6.635 
208 *735:1165 *9142:SET_B 0.3075 
209 *735:1126 *9165:SET_B 3.7725 
210 *9165:SET_B *735:1340 8.5625 
211 *735:1340 *9164:RESET_B 7.2275 
212 *735:1340 *735:1350 2.655 
213 *735:1350 *9169:RESET_B 2.3975 
214 *735:1350 *735:1364 10.82 
215 *735:1364 *9049:RESET_B 5.6275 
216 *735:1364 *735:1382 2.535 
217 *735:1382 *9048:RESET_B 0.3975 
218 *735:1382 *9050:RESET_B 8.3775 
219 *9050:RESET_B *735:1406 6.1925 
220 *735:1406 *9051:RESET_B 2.7425 
221 *735:1406 *735:1416 9.795 
222 *735:1416 *9053:RESET_B 4.1225 
223 *735:1416 *9054:RESET_B 8.6451 
224 *9054:RESET_B *735:1452 6.74 
225 *735:1452 *9052:RESET_B 4.1225 
226 *735:1452 *735:1462 8.01 
227 *735:1462 *9055:RESET_B 2 
228 *735:1462 *735:1469 1.38 
229 *735:1469 *9056:RESET_B 3.7025 
230 *735:1469 *735:1481 8.52 
231 *735:1481 *9149:RESET_B 2.3975 
232 *735:1481 *735:1491 2.91 
233 *735:1491 *9151:RESET_B 2.7425 
234 *735:1491 *735:1503 2.175 
235 *735:1503 *9150:RESET_B 2 
236 *735:1503 *735:1514 11.075 
237 *735:1514 *9153:RESET_B 1.4475 
238 *735:1514 *735:1530 14.785 
239 *735:1530 *9154:RESET_B 1.4475 
240 *735:1530 *735:1542 3.125 
241 *735:1542 *9155:RESET_B 2 
242 *735:1542 *735:1553 16.655 
243 *735:1553 *9156:RESET_B 1.4475 
244 *735:1553 *9157:RESET_B 7.165 
245 *9157:RESET_B *735:1576 1.5525 
246 *735:1576 *9159:RESET_B 4.3125 
247 *735:1576 *735:1590 14.09 
248 *735:1590 *735:1594 6.42 
249 *735:1594 *735:1596 2.655 
250 *735:1596 *735:1598 5.715 
251 *735:1598 *735:1602 2.85 
252 *735:1602 *9057:RESET_B 3.38 
253 *735:1602 *9058:RESET_B 2.7425 
254 *735:1598 *9059:RESET_B 2.7575 
255 *735:1596 *9148:RESET_B 3.5525 
256 *735:1594 *9147:RESET_B 2.7575 
257 *735:1590 *9152:RESET_B 2.7425 
258 *735:1089 *9038:RESET_B 2.6825 
259 *735:1067 *9035:RESET_B 0.3975 
*END

*D_NET *736 0.0227939
*CONN
*I *8908:B I *D sky130_fd_sc_hd__or2_1
*I *8935:A1 I *D sky130_fd_sc_hd__a22o_1
*I *8926:B1 I *D sky130_fd_sc_hd__a32o_1
*I *8941:B2 I *D sky130_fd_sc_hd__a22o_1
*I *9205:X O *D sky130_fd_sc_hd__clkbuf_2
*CAP
1 *8908:B 0.000881226
2 *8935:A1 0.000469123
3 *8926:B1 1.46823e-05
4 *8941:B2 1.67377e-05
5 *9205:X 0.00211774
6 *736:41 0.000677368
7 *736:31 0.00327353
8 *736:18 0.00341293
9 *736:12 0.00331518
10 *8935:A1 *8934:A1 4.48564e-05
11 *8935:A1 *763:34 0
12 *736:18 *764:14 0.00108512
13 *736:31 *737:16 0.00208037
14 *736:31 *740:25 0
15 *736:41 *8950:A1 0
16 *8547:C *8908:B 0
17 *8547:C *8935:A1 0.00100878
18 *8705:B2 *8926:B1 1.08251e-05
19 *8705:B2 *8935:A1 9.45141e-05
20 *8708:B2 *8935:A1 0.000182143
21 *8708:B2 *736:41 0.000233792
22 *8714:A2 *8908:B 0.000136321
23 *8714:B1 *8908:B 0
24 *8727:C1 *8908:B 0.000300253
25 *8727:C1 *736:31 0.000773452
26 *8920:B *8908:B 0
27 *8920:C *8908:B 8.63188e-05
28 *8920:D_N *8908:B 3.98952e-05
29 *8922:C *8908:B 0
30 *8922:C *8935:A1 0.0001149
31 *8924:A3 *8935:A1 0
32 *8924:B2 *8935:A1 2.37234e-05
33 *8926:A3 *8926:B1 1.42696e-05
34 *8926:A3 *736:41 6.27114e-05
35 *8932:C *8935:A1 0
36 *9071:D *8935:A1 0.000116165
37 *9071:RESET_B *8935:A1 8.3698e-05
38 *9073:D *736:41 2.45351e-05
39 *9171:CLK *736:18 0
40 *9172:CLK *736:12 1.5186e-05
41 *9172:D *736:12 2.75145e-05
42 *335:73 *8908:B 0.000139523
43 *347:156 *8908:B 0.000157745
44 *521:26 *736:41 9.83795e-05
45 *524:29 *8935:A1 2.5947e-05
46 *527:31 *8941:B2 1.87674e-05
47 *527:31 *736:18 2.23342e-05
48 *695:14 *736:31 6.20564e-05
49 *707:88 *736:41 4.65522e-05
50 *722:73 *8941:B2 2.95708e-05
51 *722:73 *736:18 0.000176099
52 *722:75 *736:18 0.000426042
53 *722:77 *736:18 0.000242772
54 *722:87 *736:18 0.000366994
55 *735:383 *8935:A1 0.000243252
*RES
1 *9205:X *736:12 27.975 
2 *736:12 *736:18 29.1825 
3 *736:18 *8941:B2 4.0875 
4 *736:18 *736:31 5.84027 
5 *736:31 *736:41 7.3075 
6 *736:41 *8926:B1 2.1625 
7 *736:41 *8935:A1 19.52 
8 *736:31 *8908:B 12.8726 
*END

*D_NET *737 0.0142488
*CONN
*I *8942:B2 I *D sky130_fd_sc_hd__a22o_1
*I *8910:B I *D sky130_fd_sc_hd__or2_1
*I *8927:B1 I *D sky130_fd_sc_hd__a32o_1
*I *8898:A1 I *D sky130_fd_sc_hd__a22o_1
*I *9206:X O *D sky130_fd_sc_hd__clkbuf_2
*CAP
1 *8942:B2 0.000122139
2 *8910:B 0
3 *8927:B1 9.94824e-05
4 *8898:A1 0.000182108
5 *9206:X 0.00249825
6 *737:47 0.000875683
7 *737:22 0.00144243
8 *737:16 0.00310451
9 *8942:B2 *8949:A1 0.000294088
10 *737:16 *8949:A1 6.16289e-05
11 *737:47 *8928:B1 6.9114e-05
12 *737:47 *8951:A4 0.000246747
13 *8707:A1 *737:22 0.000390466
14 *8707:A2 *737:22 0.000120655
15 *8707:B2 *737:22 2.8185e-05
16 *8708:B2 *8898:A1 0.000195476
17 *8709:B2 *737:47 1.88904e-05
18 *8710:B *8898:A1 5.92269e-05
19 *8711:A1 *737:47 8.34281e-06
20 *8714:B2 *8927:B1 1.59999e-05
21 *8928:A1 *737:47 0.000163819
22 *8928:A2 *737:47 3.1562e-06
23 *8951:A1 *8898:A1 2.60629e-05
24 *8951:A1 *737:47 9.26214e-05
25 *8973:A1 *737:16 0.000662897
26 *9073:CLK *8898:A1 0.000159964
27 *9206:A *737:16 5.53249e-06
28 *236:77 *8927:B1 9.50342e-06
29 *236:77 *737:47 3.45252e-05
30 *239:129 *8927:B1 0.000114112
31 *347:49 *737:22 0.000173865
32 *347:51 *737:22 3.37941e-05
33 *521:16 *8927:B1 1.59999e-05
34 *523:32 *8927:B1 7.23533e-05
35 *523:45 *8927:B1 0.000128353
36 *523:54 *8927:B1 2.04411e-05
37 *525:8 *8942:B2 3.89534e-05
38 *525:8 *737:16 3.05521e-05
39 *525:28 *8942:B2 1.88904e-05
40 *525:96 *8942:B2 0.000108462
41 *579:12 *8898:A1 5.53249e-06
42 *695:14 *737:16 0.000136264
43 *707:88 *8898:A1 0.000110555
44 *707:103 *8898:A1 1.88466e-05
45 *707:103 *737:47 0.000150005
46 *736:31 *737:16 0.00208037
*RES
1 *9206:X *737:16 12.8381 
2 *737:16 *737:22 12.385 
3 *737:22 *8898:A1 8.55 
4 *737:22 *737:47 13.49 
5 *737:47 *8927:B1 8.5325 
6 *737:47 *8910:B 1.6 
7 *737:16 *8942:B2 7.275 
*END

*D_NET *738 0.0183561
*CONN
*I *8912:B I *D sky130_fd_sc_hd__or2_1
*I *8928:B1 I *D sky130_fd_sc_hd__a32o_1
*I *8943:B2 I *D sky130_fd_sc_hd__a22o_1
*I *8949:A1 I *D sky130_fd_sc_hd__a22o_1
*I *9207:X O *D sky130_fd_sc_hd__clkbuf_2
*CAP
1 *8912:B 0.000550507
2 *8928:B1 0.000233188
3 *8943:B2 2.31656e-05
4 *8949:A1 0.000545936
5 *9207:X 0.00311665
6 *738:44 0.00180506
7 *738:12 0.000742508
8 *738:10 0.00239181
9 *738:8 0.00431369
10 *8912:B *8914:B 0.000207967
11 *8912:B *8931:B1 5.70461e-06
12 *8928:B1 *8914:B 3.05646e-05
13 *8928:B1 *8929:B1 9.82856e-06
14 *8928:B1 *8950:A1 6.14602e-05
15 *8928:B1 *739:59 3.90533e-05
16 *8711:A1 *8928:B1 0.000288896
17 *8711:A1 *738:44 2.46471e-05
18 *8716:B2 *738:44 0.000866207
19 *8912:A *8912:B 0.000222376
20 *8928:A1 *8928:B1 6.74384e-05
21 *8937:A *8949:A1 1.65432e-05
22 *8942:B2 *8949:A1 0.000294088
23 *8943:A2 *8949:A1 4.91397e-05
24 *8943:B1 *8943:B2 4.66108e-05
25 *8943:B1 *8949:A1 0.00022687
26 *8949:A2 *8949:A1 3.26889e-05
27 *8949:B1 *8949:A1 2.11084e-05
28 *8949:B2 *8949:A1 5.53774e-05
29 *8978:S *738:12 0
30 *9076:D *8912:B 7.23602e-05
31 *9076:D *8928:B1 8.53113e-06
32 *9087:CLK *738:10 0
33 *9105:D *738:12 0
34 *9126:CLK *738:10 0
35 *9126:CLK *738:12 0
36 *9126:D *738:12 0
37 *9126:RESET_B *738:44 1.23607e-05
38 *9127:RESET_B *738:10 0
39 *236:98 *8912:B 6.03272e-05
40 *236:100 *8912:B 3.10777e-05
41 *236:113 *8912:B 8.45475e-05
42 *509:6 *8912:B 0.000383652
43 *521:22 *8928:B1 6.60907e-06
44 *521:26 *8928:B1 1.53032e-05
45 *521:84 *8928:B1 3.90531e-05
46 *521:88 *8928:B1 6.36438e-07
47 *523:67 *8912:B 0.000377302
48 *525:8 *8949:A1 0.000127374
49 *525:96 *8949:A1 8.12462e-06
50 *527:90 *8949:A1 0.000670923
51 *696:12 *738:12 0
52 *696:12 *738:44 3.81259e-05
53 *709:80 *738:10 0
54 *735:448 *8912:B 0
55 *735:448 *8928:B1 0
56 *735:473 *738:10 0
57 *735:811 *8912:B 0
58 *737:16 *8949:A1 6.16289e-05
59 *737:47 *8928:B1 6.9114e-05
*RES
1 *9207:X *738:8 46.485 
2 *738:8 *738:10 19.485 
3 *738:10 *738:12 2.655 
4 *738:12 *8949:A1 17.85 
5 *738:12 *8943:B2 4.05 
6 *738:10 *738:44 16.87 
7 *738:44 *8928:B1 9.4275 
8 *738:44 *8912:B 21.055 
*END

*D_NET *739 0.0279232
*CONN
*I *8944:B2 I *D sky130_fd_sc_hd__a22o_1
*I *8914:B I *D sky130_fd_sc_hd__or2_1
*I *8929:B1 I *D sky130_fd_sc_hd__a32o_1
*I *8950:A1 I *D sky130_fd_sc_hd__a22o_1
*I *9208:X O *D sky130_fd_sc_hd__buf_2
*CAP
1 *8944:B2 0
2 *8914:B 0.000689923
3 *8929:B1 0.000273365
4 *8950:A1 0.00137888
5 *9208:X 0.00260558
6 *739:59 0.00109779
7 *739:34 0.00350342
8 *739:10 0.00407973
9 *739:8 0.00469528
10 *8914:B *8916:B 0
11 *8950:A1 *8893:A 0.000493431
12 *8950:A1 *8951:A4 7.16919e-05
13 *8950:A1 *8953:A1 0.000336442
14 *739:10 *741:10 0.000944065
15 *739:10 *741:14 0.000769815
16 *739:10 *741:16 0.000158944
17 *739:34 *748:18 2.66935e-05
18 *8693:C1 *8950:A1 1.0129e-05
19 *8711:A1 *739:59 5.88411e-05
20 *8716:B2 *8929:B1 1.93046e-05
21 *8716:B2 *739:59 0.000113255
22 *8721:C1 *8929:B1 6.60794e-05
23 *8912:B *8914:B 0.000207967
24 *8914:A *8914:B 9.27495e-05
25 *8922:D *8950:A1 0
26 *8925:A3 *8950:A1 1.31735e-05
27 *8928:B1 *8914:B 3.05646e-05
28 *8928:B1 *8929:B1 9.82856e-06
29 *8928:B1 *8950:A1 6.14602e-05
30 *8928:B1 *739:59 3.90533e-05
31 *8929:A1 *8929:B1 8.7152e-06
32 *8929:A3 *8929:B1 0
33 *8929:B2 *8929:B1 7.00889e-06
34 *8931:A3 *8914:B 6.68963e-05
35 *8942:A2 *739:34 5.05521e-05
36 *8942:B1 *739:34 5.21706e-05
37 *8944:A1 *739:10 8.09021e-06
38 *8945:A1 *739:34 0.000246223
39 *8952:B1_N *8950:A1 0.000461242
40 *8953:B2 *8950:A1 9.09615e-05
41 *8974:A1 *739:34 6.07575e-06
42 *8974:S *739:34 0.000163204
43 *8975:B1 *739:34 0.000241483
44 *9062:D *8950:A1 5.92269e-05
45 *9072:D *8950:A1 7.4027e-05
46 *9074:D *739:34 0.000280665
47 *9074:RESET_B *739:34 0.000137256
48 *9076:D *8914:B 7.23533e-05
49 *9078:D *8914:B 3.64998e-06
50 *9106:D *739:10 9.71067e-05
51 *9107:CLK *739:10 8.6099e-05
52 *9107:CLK *739:34 7.81954e-05
53 *9181:A *8929:B1 6.9114e-05
54 *9181:A *739:59 0.00018367
55 *234:46 *8914:B 1.61428e-05
56 *236:25 *8950:A1 0
57 *239:88 *8950:A1 0
58 *503:30 *8950:A1 0.000157959
59 *503:34 *8950:A1 7.84791e-05
60 *505:22 *8950:A1 6.57653e-06
61 *521:26 *8950:A1 0
62 *521:88 *8914:B 0.000655133
63 *521:88 *8929:B1 2.11088e-05
64 *523:54 *8929:B1 6.63219e-06
65 *525:28 *739:10 0
66 *525:28 *739:34 0
67 *688:39 *739:34 0.000141467
68 *691:6 *739:34 0.000115779
69 *706:8 *8950:A1 0.000137571
70 *706:18 *8950:A1 0.000611708
71 *707:88 *8950:A1 0
72 *709:42 *739:10 0.000119277
73 *735:373 *8950:A1 0.000426206
74 *735:448 *8950:A1 0.000498114
75 *735:448 *739:59 0.000210459
76 *735:811 *8914:B 0
77 *735:892 *739:34 0.0003291
78 *736:41 *8950:A1 0
*RES
1 *9208:X *739:8 31.995 
2 *739:8 *739:10 48.3 
3 *739:10 *739:34 38.21 
4 *739:34 *8950:A1 40.69 
5 *739:34 *739:59 8.485 
6 *739:59 *8929:B1 6.75357 
7 *739:59 *8914:B 16.305 
8 *739:10 *8944:B2 3.6 
*END

*D_NET *740 0.0271694
*CONN
*I *8930:B1 I *D sky130_fd_sc_hd__a32o_1
*I *8916:B I *D sky130_fd_sc_hd__or2_1
*I *8951:A4 I *D sky130_fd_sc_hd__a41o_1
*I *8945:B2 I *D sky130_fd_sc_hd__a22o_1
*I *9209:X O *D sky130_fd_sc_hd__buf_2
*CAP
1 *8930:B1 5.08005e-05
2 *8916:B 0.000274199
3 *8951:A4 0.000705628
4 *8945:B2 2.25817e-05
5 *9209:X 0.00228149
6 *740:58 0.00119088
7 *740:25 0.003754
8 *740:10 0.00688125
9 *740:8 0.00695767
10 *8916:B *8931:B1 3.83041e-05
11 *8916:B *741:62 0.000311288
12 *740:10 *741:10 0
13 *740:10 *741:14 0
14 *740:10 *741:16 0
15 *740:58 *744:16 0
16 *740:58 *744:18 0
17 *8702:A1 *8951:A4 9.52791e-05
18 *8709:B2 *740:25 6.32637e-06
19 *8721:C1 *740:25 0.000545651
20 *8727:C1 *740:25 9.80172e-05
21 *8897:A2 *8951:A4 8.49205e-05
22 *8897:A3 *8951:A4 4.82863e-05
23 *8897:B1 *8951:A4 5.85003e-05
24 *8898:A2 *8951:A4 0.000139245
25 *8898:B1 *8951:A4 5.11148e-06
26 *8914:B *8916:B 0
27 *8918:A *8916:B 4.0843e-05
28 *8930:A1 *740:58 0.000191096
29 *8930:A2 *8930:B1 2.09749e-05
30 *8930:A2 *740:58 7.67415e-06
31 *8944:B1 *8945:B2 2.28346e-05
32 *8944:B1 *740:10 9.8153e-05
33 *8950:A1 *8951:A4 7.16919e-05
34 *8951:A1 *8951:A4 3.44034e-05
35 *8951:A1 *740:58 0.000379665
36 *9062:D *8951:A4 0.000269952
37 *9075:D *8951:A4 6.54766e-05
38 *9075:D *740:58 0.000409972
39 *9077:RESET_B *8916:B 8.5225e-05
40 *9077:RESET_B *8930:B1 3.68862e-05
41 *9078:D *8916:B 0
42 *345:87 *740:25 0.000278658
43 *383:27 *8951:A4 3.09774e-05
44 *502:49 *8951:A4 4.22057e-05
45 *502:61 *8951:A4 0.000145318
46 *509:6 *8916:B 0.000497665
47 *519:14 *8916:B 4.66108e-05
48 *521:88 *8916:B 0
49 *521:88 *8930:B1 0
50 *579:52 *8951:A4 0.000112123
51 *706:18 *8951:A4 0.000103127
52 *707:103 *8951:A4 2.19277e-05
53 *707:103 *740:58 0.000104214
54 *735:448 *8951:A4 0.000179241
55 *735:811 *8916:B 7.63204e-05
56 *736:31 *740:25 0
57 *737:47 *8951:A4 0.000246747
*RES
1 *9209:X *740:8 28.545 
2 *740:8 *740:10 78.7725 
3 *740:10 *8945:B2 4.0875 
4 *740:10 *740:25 5.5828 
5 *740:25 *8951:A4 25.6075 
6 *740:25 *740:58 21.0475 
7 *740:58 *8916:B 11.61 
8 *740:58 *8930:B1 4.6725 
*END

*D_NET *741 0.0323089
*CONN
*I *8931:B1 I *D sky130_fd_sc_hd__a32o_1
*I *8918:B I *D sky130_fd_sc_hd__or2_1
*I *8953:A1 I *D sky130_fd_sc_hd__a22o_1
*I *8946:B2 I *D sky130_fd_sc_hd__a22o_1
*I *9210:X O *D sky130_fd_sc_hd__buf_2
*CAP
1 *8931:B1 0.00017898
2 *8918:B 0
3 *8953:A1 0.00139147
4 *8946:B2 3.23711e-05
5 *9210:X 0.00252178
6 *741:62 0.00228205
7 *741:16 0.00223015
8 *741:14 0.00386715
9 *741:10 0.00503993
10 *741:8 0.00660394
11 *741:62 *8901:B 8.40269e-05
12 *741:62 *748:14 8.49205e-05
13 *8547:A *8931:B1 8.7152e-06
14 *8702:A1 *8953:A1 0.000124895
15 *8912:B *8931:B1 5.70461e-06
16 *8916:B *8931:B1 3.83041e-05
17 *8916:B *741:62 0.000311288
18 *8930:A3 *8931:B1 1.12459e-05
19 *8930:B2 *8931:B1 2.09749e-05
20 *8931:A3 *8931:B1 1.94636e-05
21 *8936:B1 *8953:A1 0
22 *8940:A1 *8946:B2 4.82863e-05
23 *8944:B1 *741:16 0
24 *8946:A1 *8953:A1 8.34281e-06
25 *8950:A1 *8953:A1 0.000336442
26 *8952:B1_N *8953:A1 4.47819e-05
27 *8971:A1 *8953:A1 0.000156454
28 *8972:A0 *8953:A1 4.78461e-05
29 *8981:B2 *741:16 2.87867e-05
30 *8983:A2 *8953:A1 0.000345353
31 *9101:D *8946:B2 2.80936e-05
32 *9101:D *741:16 7.07801e-05
33 *9103:D *741:16 9.54469e-05
34 *9103:RESET_B *741:16 0.000359844
35 *9107:CLK *741:16 0.000336419
36 *9124:D *8953:A1 0.00012528
37 *9129:D *741:16 0
38 *234:46 *8931:B1 0.000137894
39 *236:25 *8953:A1 0
40 *347:103 *8953:A1 3.76625e-05
41 *502:10 *8953:A1 7.23602e-05
42 *502:120 *8953:A1 0.000275995
43 *509:6 *741:62 0.000287796
44 *521:88 *8931:B1 0
45 *523:67 *8931:B1 0.00017398
46 *525:28 *741:16 0
47 *525:36 *741:16 0.000180395
48 *525:42 *741:16 0.000356978
49 *525:48 *741:16 0.000174823
50 *525:59 *8946:B2 4.66108e-05
51 *525:59 *8953:A1 0.000193806
52 *527:14 *8953:A1 0.000453629
53 *527:16 *8953:A1 0.000120655
54 *537:67 *8953:A1 0.000309618
55 *686:39 *8953:A1 0.000224674
56 *694:12 *8953:A1 6.23259e-05
57 *709:42 *741:16 0.000203002
58 *735:222 *8946:B2 4.90071e-05
59 *735:222 *741:16 0.000185398
60 *739:10 *741:10 0.000944065
61 *739:10 *741:14 0.000769815
62 *739:10 *741:16 0.000158944
63 *740:10 *741:10 0
64 *740:10 *741:14 0
65 *740:10 *741:16 0
*RES
1 *9210:X *741:8 31.305 
2 *741:8 *741:10 74.0175 
3 *741:10 *741:14 21.5025 
4 *741:14 *741:16 22.545 
5 *741:16 *8946:B2 4.665 
6 *741:16 *8953:A1 40.07 
7 *741:14 *741:62 32.81 
8 *741:62 *8918:B 1.6 
9 *741:62 *8931:B1 10.1825 
*END

*D_NET *742 0.0258239
*CONN
*I *8511:A I *D sky130_fd_sc_hd__inv_2
*I *8495:A I *D sky130_fd_sc_hd__or2_1
*I *8489:A I *D sky130_fd_sc_hd__nor2_1
*I *8587:A I *D sky130_fd_sc_hd__or3b_1
*I *8595:A I *D sky130_fd_sc_hd__buf_2
*I *8948:C1 I *D sky130_fd_sc_hd__a311oi_4
*I *8549:A I *D sky130_fd_sc_hd__clkbuf_4
*I *9211:X O *D sky130_fd_sc_hd__clkbuf_4
*CAP
1 *8511:A 0
2 *8495:A 0.000240604
3 *8489:A 0
4 *8587:A 0.000304497
5 *8595:A 0
6 *8948:C1 0.000132098
7 *8549:A 3.37585e-05
8 *9211:X 0.000637683
9 *742:79 0.000475959
10 *742:73 0.0012038
11 *742:58 0.00229356
12 *742:37 0.00219197
13 *742:29 0.000641884
14 *742:20 0.000846515
15 *742:10 0.00356171
16 *742:8 0.00347047
17 *742:73 *8700:A 0.000167141
18 *8495:B *8495:A 5.4155e-06
19 *8496:A *8495:A 4.88478e-05
20 *8516:A *742:10 6.23659e-05
21 *8516:A *742:20 0.000282186
22 *8534:A1 *742:10 0
23 *8534:C1 *742:10 0
24 *8556:A *742:73 0
25 *8559:A1 *742:73 0.000186662
26 *8559:A1 *742:79 6.07422e-05
27 *8587:B *8587:A 0.000354215
28 *8592:A1 *742:79 0
29 *8670:A1 *742:20 0.000121094
30 *8670:A2 *742:20 5.23362e-05
31 *8671:A *742:20 0.000247567
32 *8678:A *742:58 0
33 *8684:A *742:58 8.20792e-05
34 *8701:A1 *742:58 0
35 *8701:A1 *742:73 0.00011852
36 *8718:A1 *742:73 0
37 *8934:B2 *742:58 8.34426e-05
38 *8948:B1 *8948:C1 0
39 *8963:A *742:20 0.000103192
40 *8963:A *742:29 4.82919e-05
41 *8963:A *742:37 1.52184e-05
42 *8963:B *742:20 0.000195932
43 *8963:C *742:20 0.000122877
44 *8966:A0 *742:37 0.00130498
45 *8967:B1 *742:20 0
46 *8967:B1 *742:37 5.02905e-05
47 *8993:A2 *8587:A 0.00028085
48 *8993:A2 *742:79 5.53249e-06
49 *9042:D *742:73 0.000252282
50 *9044:RESET_B *742:73 7.6953e-05
51 *9097:D *742:10 3.18219e-05
52 *9098:D *742:58 0
53 *9122:CLK *742:10 0.000181376
54 *9174:D *742:20 0
55 *208:23 *742:37 4.91469e-05
56 *208:73 *742:58 0
57 *226:10 *742:10 0
58 *236:25 *742:29 3.66286e-05
59 *236:29 *742:37 0.000592171
60 *236:29 *742:58 0.000137953
61 *236:77 *742:58 0.000179952
62 *239:50 *742:73 1.92098e-05
63 *275:16 *742:58 0.000585027
64 *275:16 *742:73 3.57254e-05
65 *338:24 *742:73 8.53113e-06
66 *446:18 *8587:A 0.000172708
67 *579:52 *8948:C1 0.000252927
68 *579:52 *742:20 0
69 *581:23 *8587:A 0.000183738
70 *581:34 *8587:A 8.53113e-06
71 *581:34 *742:79 0.000165748
72 *581:38 *8495:A 4.24632e-05
73 *620:80 *8587:A 0.000154903
74 *621:12 *742:10 0.000736451
75 *621:23 *742:10 0.000552728
76 *621:34 *742:10 0.000186746
77 *621:34 *742:20 1.10631e-05
78 *621:43 *742:20 5.12017e-06
79 *621:53 *742:20 0.000201301
80 *642:33 *8948:C1 6.04396e-05
81 *700:8 *742:20 0.00018218
82 *700:8 *742:37 0
83 *701:10 *742:20 9.30717e-05
84 *703:10 *742:20 0.000340157
85 *707:151 *8495:A 2.04748e-05
86 *708:87 *742:10 0.000164686
87 *708:98 *742:10 0
88 *735:369 *8948:C1 0
89 *735:1221 *742:73 6.73751e-05
*RES
1 *9211:X *742:8 10.605 
2 *742:8 *742:10 52.7625 
3 *742:10 *742:20 21.6875 
4 *742:20 *8549:A 2.05 
5 *742:20 *742:29 1.485 
6 *742:29 *742:37 5.77157 
7 *742:37 *8948:C1 7.1375 
8 *742:37 *742:58 12.8879 
9 *742:58 *8595:A 1.6 
10 *742:58 *742:73 19.04 
11 *742:73 *742:79 3.465 
12 *742:79 *8587:A 12.48 
13 *742:79 *8489:A 3.6 
14 *742:73 *8495:A 6.735 
15 *742:29 *8511:A 1.6 
*END

*D_NET *743 0.00375019
*CONN
*I *8736:B I *D sky130_fd_sc_hd__and3b_1
*I *9212:X O *D sky130_fd_sc_hd__clkbuf_1
*CAP
1 *8736:B 0.00176642
2 *9212:X 0.00176642
3 *8736:B *8736:C 1.5186e-05
4 *8736:A_N *8736:B 0.000164874
5 *9212:A *8736:B 3.72916e-05
*RES
1 *9212:X *8736:B 28.5 
*END

*D_NET *744 0.0275571
*CONN
*I *8901:A I *D sky130_fd_sc_hd__nand2_2
*I *8893:A I *D sky130_fd_sc_hd__clkbuf_4
*I *8947:A1_N I *D sky130_fd_sc_hd__o2bb2a_1
*I *9213:X O *D sky130_fd_sc_hd__buf_2
*CAP
1 *8901:A 0
2 *8893:A 0.000263619
3 *8947:A1_N 0.000298416
4 *9213:X 6.02813e-05
5 *744:18 0.0016534
6 *744:16 0.00554653
7 *744:14 0.00871897
8 *744:10 0.00432408
9 *8947:A1_N *8947:A2_N 4.28426e-05
10 *8947:A1_N *748:18 0
11 *744:16 *9224:A 0
12 *744:18 *748:18 0
13 *8707:A2 *744:18 0.000194326
14 *8708:B2 *744:18 9.97627e-05
15 *8736:A_N *744:16 0.000122465
16 *8895:B *744:18 3.96507e-05
17 *8930:A1 *744:16 0
18 *8948:A1 *8947:A1_N 8.97486e-05
19 *8948:A1 *744:18 7.44375e-05
20 *8950:A1 *8893:A 0.000493431
21 *8951:A1 *744:18 5.16418e-05
22 *9074:CLK *744:18 9.60963e-05
23 *9078:CLK *744:16 0
24 *345:87 *744:18 1.7635e-05
25 *383:8 *744:16 0.00347618
26 *383:8 *744:18 0.000355303
27 *383:10 *744:18 3.18219e-05
28 *383:12 *744:18 8.54274e-05
29 *502:10 *8893:A 1.83847e-05
30 *502:36 *744:18 8.48869e-05
31 *502:49 *744:18 2.6906e-05
32 *503:34 *8893:A 8.81869e-05
33 *707:103 *744:18 0.000265211
34 *709:21 *744:18 9.78876e-05
35 *723:33 *8947:A1_N 2.37273e-05
36 *735:369 *8947:A1_N 8.58178e-05
37 *735:419 *744:18 7.79101e-05
38 *735:429 *744:18 0.000115464
39 *735:436 *744:18 0.000371139
40 *735:837 *744:18 0.000165481
41 *740:58 *744:16 0
42 *740:58 *744:18 0
*RES
1 *9213:X *744:10 6.47 
2 *744:10 *744:14 48.68 
3 *744:14 *744:16 100.575 
4 *744:16 *744:18 26.88 
5 *744:18 *8947:A1_N 8.91375 
6 *744:18 *8893:A 9.57 
7 *744:16 *8901:A 3.6 
*END

*D_NET *745 0.0266792
*CONN
*I *9222:A I *D sky130_fd_sc_hd__buf_1
*I *8510:B I *D sky130_fd_sc_hd__nand2_1
*I *9113:D I *D sky130_fd_sc_hd__dfxtp_1
*I *8739:A I *D sky130_fd_sc_hd__inv_2
*I *9131:Q O *D sky130_fd_sc_hd__dfstp_2
*CAP
1 *9222:A 0.000664677
2 *8510:B 0
3 *9113:D 0
4 *8739:A 0.000148339
5 *9131:Q 0.00010392
6 *745:65 0.00374995
7 *745:63 0.00314878
8 *745:61 0.00344945
9 *745:59 0.00418521
10 *745:42 0.00143103
11 *745:14 0.000248692
12 *745:10 0.000836027
13 scl_padoen_o *9222:A 3.00381e-05
14 *8505:B *745:61 0
15 *8510:A *745:42 4.66108e-05
16 *8510:A *745:59 3.66415e-05
17 *8512:A2 *745:59 2.75229e-05
18 *8555:A *745:10 4.92062e-05
19 *8591:A_N *8739:A 6.47516e-05
20 *8606:A *745:61 0.000500253
21 *8615:A *745:61 4.76503e-05
22 *8617:C1 *745:61 0.000135912
23 *8630:A3 *745:61 0.000173183
24 *8648:B1 *745:61 0.000176647
25 *8649:A2 *745:61 1.23244e-05
26 *8740:A *8739:A 3.59997e-05
27 *8740:A *745:14 0.000275542
28 *8740:B *8739:A 8.82793e-05
29 *8864:B1 *745:61 0.000351152
30 *8864:C1 *745:61 0
31 *8879:A *745:61 0
32 *8880:A1 *745:61 0
33 *8883:A1_N *745:61 0
34 *8890:A3 *745:61 0.000104009
35 *8986:A1 *8739:A 3.00381e-05
36 *9053:D *745:61 3.18137e-05
37 *9057:RESET_B *745:61 0
38 *9113:CLK *8739:A 2.94114e-05
39 *9113:CLK *745:14 6.49534e-05
40 *9156:CLK *745:61 9.24127e-05
41 *9157:D *745:61 0
42 *9157:RESET_B *745:61 0
43 *9164:CLK *8739:A 0.000162311
44 *206:70 *745:61 2.68721e-05
45 *208:73 *745:42 0.000217507
46 *208:88 *745:42 0.000159957
47 *234:135 *745:10 0.000163012
48 *234:135 *745:42 0.00133337
49 *237:71 *745:42 0
50 *285:8 *745:61 0.000102403
51 *291:18 *745:61 0.000659641
52 *291:29 *745:61 8.80798e-05
53 *292:130 *745:61 0.000106655
54 *292:142 *745:61 0.000140912
55 *385:90 *745:61 0.000134091
56 *385:103 *745:61 0.000199039
57 *385:118 *745:61 0.000136877
58 *463:12 *745:61 0.000771092
59 *463:44 *745:61 0.000220017
60 *463:70 *745:61 0
61 *463:74 *745:61 0
62 *627:14 *745:61 0
63 *652:52 *745:61 0
64 *665:30 *745:42 0
65 *712:50 *745:59 0.000471308
66 *714:95 *745:61 0.000145811
67 *714:116 *745:61 1.44259e-05
68 *735:1165 *8739:A 0
69 *735:1165 *745:10 0.000163012
70 *735:1165 *745:42 0.000472612
71 *735:1258 *745:42 0
72 *735:1306 *745:42 0
73 *735:1590 *745:61 0
74 *735:1594 *745:61 4.59655e-05
75 *735:1596 *745:61 9.28188e-05
76 *735:1598 *745:61 0.000194157
77 *735:1602 *745:61 8.683e-05
*RES
1 *9131:Q *745:10 6.285 
2 *745:10 *745:14 4.89875 
3 *745:14 *8739:A 9.58625 
4 *745:14 *9113:D 1.6 
5 *745:10 *745:42 20.405 
6 *745:42 *8510:B 1.6 
7 *745:42 *745:59 16.4 
8 *745:59 *745:61 72.6075 
9 *745:61 *745:63 0.795 
10 *745:63 *745:65 51.855 
11 *745:65 *9222:A 14.6775 
*END

*D_NET *746 0.0114213
*CONN
*I *8663:B I *D sky130_fd_sc_hd__and2_1
*I *9214:X O *D sky130_fd_sc_hd__buf_1
*CAP
1 *8663:B 0
2 *9214:X 0.00010704
3 *746:10 0.00458524
4 *746:8 0.00469228
5 *746:10 *754:10 0.00194249
6 *9085:CLK *746:10 8.87475e-05
7 *713:138 *746:10 5.53249e-06
*RES
1 *9214:X *746:8 4.74 
2 *746:8 *746:10 85.02 
3 *746:10 *8663:B 3.6 
*END

*D_NET *747 0.0276365
*CONN
*I *9223:A I *D sky130_fd_sc_hd__clkbuf_1
*I *8591:B I *D sky130_fd_sc_hd__and3b_1
*I *8989:A_N I *D sky130_fd_sc_hd__nand3b_1
*I *9132:Q O *D sky130_fd_sc_hd__dfstp_2
*CAP
1 *9223:A 0
2 *8591:B 0
3 *8989:A_N 0.000372497
4 *9132:Q 0
5 *747:40 0.00278453
6 *747:36 0.0113112
7 *747:34 0.0100959
8 *747:23 0.00174956
9 *747:4 0.000552839
10 *8591:A_N *747:23 3.45679e-05
11 *8591:C *8989:A_N 0
12 *8591:C *747:23 1.03423e-05
13 *8591:C *747:34 1.44596e-05
14 *8592:A2 *747:23 1.29825e-05
15 *8592:A2 *747:34 2.66586e-05
16 *8660:A *747:34 0.000137454
17 *8989:B *8989:A_N 5.46217e-05
18 *9132:CLK *8989:A_N 2.87867e-05
19 *9163:D *747:34 1.7386e-05
20 *620:29 *8989:A_N 0.000432769
*RES
1 *9132:Q *747:4 1.6 
2 *747:4 *8989:A_N 13.07 
3 *747:4 *747:23 2.175 
4 *747:23 *8591:B 1.6 
5 *747:23 *747:34 22.7325 
6 *747:34 *747:36 93.7725 
7 *747:36 *747:40 48.515 
8 *747:40 *9223:A 3.6 
*END

*D_NET *748 0.019905
*CONN
*I *9224:A I *D sky130_fd_sc_hd__buf_1
*I *8735:A I *D sky130_fd_sc_hd__buf_4
*I *8901:B I *D sky130_fd_sc_hd__nand2_2
*I *8948:A2 I *D sky130_fd_sc_hd__a311oi_4
*I *8947:A2_N I *D sky130_fd_sc_hd__o2bb2a_1
*I *9087:Q O *D sky130_fd_sc_hd__dfxtp_2
*CAP
1 *9224:A 0.000484518
2 *8735:A 0
3 *8901:B 3.62275e-05
4 *8948:A2 0
5 *8947:A2_N 0.000153049
6 *9087:Q 0.000263806
7 *748:45 0.00359387
8 *748:18 0.00134367
9 *748:14 0.00227982
10 *748:8 0.00442613
11 wb_ack_o *9224:A 5.05437e-05
12 *8707:C1 *748:18 0
13 *8736:A_N *9224:A 0.000118279
14 *8895:B *748:18 0.00011456
15 *8947:A1_N *8947:A2_N 4.28426e-05
16 *8947:A1_N *748:18 0
17 *8948:B1 *8947:A2_N 0.000115329
18 *8949:B1 *748:18 0
19 *9074:RESET_B *748:18 0
20 *9109:CLK *748:18 8.78813e-05
21 *9112:CLK *8947:A2_N 5.30242e-05
22 *9126:RESET_B *748:18 0
23 *9127:RESET_B *748:18 0
24 *383:8 *9224:A 1.43521e-05
25 *383:8 *748:14 0.000844176
26 *383:8 *748:18 0.00162537
27 *383:8 *748:45 0.00262186
28 *383:10 *748:18 8.45475e-05
29 *383:12 *748:18 0.000216781
30 *688:39 *748:18 7.4027e-05
31 *689:8 *748:18 4.94404e-05
32 *689:14 *748:18 9.98776e-05
33 *723:33 *8947:A2_N 7.45826e-05
34 *723:50 *8947:A2_N 0.000180106
35 *723:50 *748:18 0.00066073
36 *735:369 *8947:A2_N 0
37 *739:34 *748:18 2.66935e-05
38 *741:62 *8901:B 8.40269e-05
39 *741:62 *748:14 8.49205e-05
40 *744:16 *9224:A 0
41 *744:18 *748:18 0
*RES
1 *9087:Q *748:8 6.465 
2 *748:8 *748:14 25.85 
3 *748:14 *748:18 30.665 
4 *748:18 *8947:A2_N 7.63875 
5 *748:18 *8948:A2 3.6 
6 *748:14 *8901:B 2.395 
7 *748:8 *748:45 70.995 
8 *748:45 *8735:A 3.6 
9 *748:45 *9224:A 12.66 
*END

*D_NET *749 0.0213998
*CONN
*I *9225:A I *D sky130_fd_sc_hd__buf_1
*I *9079:Q O *D sky130_fd_sc_hd__dfxtp_1
*CAP
1 *9225:A 0
2 *9079:Q 0
3 *749:10 0.00324059
4 *749:6 0.0106999
5 *749:4 0.0074593
*RES
1 *9079:Q *749:4 1.6 
2 *749:4 *749:6 82.0425 
3 *749:6 *749:10 48.8475 
4 *749:10 *9225:A 1.6 
*END

*D_NET *750 0.017854
*CONN
*I *9226:A I *D sky130_fd_sc_hd__buf_1
*I *9080:Q O *D sky130_fd_sc_hd__dfxtp_1
*CAP
1 *9226:A 0.000268998
2 *9080:Q 0
3 *750:6 0.00892698
4 *750:4 0.00865798
*RES
1 *9080:Q *750:4 1.6 
2 *750:4 *750:6 95.325 
3 *750:6 *9226:A 5.26 
*END

*D_NET *751 0.013111
*CONN
*I *9227:A I *D sky130_fd_sc_hd__clkbuf_1
*I *9081:Q O *D sky130_fd_sc_hd__dfxtp_1
*CAP
1 *9227:A 0
2 *9081:Q 0.00325553
3 *751:10 0.00319924
4 *751:8 0.00645476
5 wb_dat_o[2] *751:10 0.000201508
*RES
1 *9081:Q *751:8 37.6825 
2 *751:8 *751:10 48.9225 
3 *751:10 *9227:A 1.6 
*END

*D_NET *752 0.0115978
*CONN
*I *9228:A I *D sky130_fd_sc_hd__clkbuf_1
*I *9082:Q O *D sky130_fd_sc_hd__dfxtp_1
*CAP
1 *9228:A 0
2 *9082:Q 0.00249356
3 *752:10 0.00320589
4 *752:8 0.00569945
5 wb_dat_o[3] *752:10 0.000198939
*RES
1 *9082:Q *752:8 36.3025 
2 *752:8 *752:10 48.9225 
3 *752:10 *9228:A 1.6 
*END

*D_NET *753 0.0113255
*CONN
*I *9229:A I *D sky130_fd_sc_hd__buf_1
*I *9083:Q O *D sky130_fd_sc_hd__dfxtp_1
*CAP
1 *9229:A 0
2 *9083:Q 0.000138129
3 *753:12 0.00537542
4 *753:10 0.00551355
5 *753:10 *756:8 0.000298442
*RES
1 *9083:Q *753:10 9.02 
2 *753:10 *753:12 80.835 
3 *753:12 *9229:A 1.6 
*END

*D_NET *754 0.0217806
*CONN
*I *9230:A I *D sky130_fd_sc_hd__buf_1
*I *9084:Q O *D sky130_fd_sc_hd__dfxtp_1
*CAP
1 *9230:A 0
2 *9084:Q 0.000854053
3 *754:12 0.009065
4 *754:10 0.00991905
5 *746:10 *754:10 0.00194249
*RES
1 *9084:Q *754:10 27.635 
2 *754:10 *754:12 136.035 
3 *754:12 *9230:A 1.6 
*END

*D_NET *755 0.0235273
*CONN
*I *9231:A I *D sky130_fd_sc_hd__clkbuf_1
*I *9085:Q O *D sky130_fd_sc_hd__dfxtp_2
*CAP
1 *9231:A 0
2 *9085:Q 0
3 *755:12 0.00872208
4 *755:10 0.00872208
5 *755:8 0.00302294
6 *755:6 0.00302294
7 wb_dat_o[6] *755:12 3.72916e-05
*RES
1 *9085:Q *755:6 3.6 
2 *755:6 *755:8 50.595 
3 *755:8 *755:10 2 
4 *755:10 *755:12 131.205 
5 *755:12 *9231:A 1.6 
*END

*D_NET *756 0.025179
*CONN
*I *9232:A I *D sky130_fd_sc_hd__buf_1
*I *9086:Q O *D sky130_fd_sc_hd__dfxtp_2
*CAP
1 *9232:A 0
2 *9086:Q 0
3 *756:12 0.00535853
4 *756:10 0.00535853
5 *756:8 0.00708177
6 *756:6 0.00708177
7 *753:10 *756:8 0.000298442
*RES
1 *9086:Q *756:6 3.6 
2 *756:6 *756:8 119.7 
3 *756:8 *756:10 2 
4 *756:10 *756:12 80.49 
5 *756:12 *9232:A 1.6 
*END

*D_NET *757 0.0172468
*CONN
*I *8659:B I *D sky130_fd_sc_hd__and2_1
*I *9215:X O *D sky130_fd_sc_hd__buf_1
*CAP
1 *8659:B 0.000395687
2 *9215:X 0.00204302
3 *757:22 0.00290448
4 *757:18 0.00408936
5 *757:10 0.00362358
6 *757:10 *761:8 0.000165742
7 *757:18 *760:24 0.000278843
8 *757:18 *761:8 0.00219376
9 *8577:A *757:22 0.000196602
10 *8660:A *8659:B 1.26626e-05
11 *8661:A *8659:B 0
12 *8661:B *8659:B 0.00013521
13 *8662:A *8659:B 6.47594e-05
14 *8774:A *757:22 0
15 *9035:CLK *757:22 0
16 *9036:D *757:22 4.94404e-05
17 *9132:SET_B *8659:B 0
18 *9133:CLK *8659:B 6.23375e-05
19 *9163:D *8659:B 0
20 *9190:A *8659:B 0.000838398
21 *244:14 *757:22 0
22 *588:10 *757:22 0
23 *588:21 *757:22 0
24 *589:49 *757:22 7.1635e-05
25 *593:14 *757:22 0
26 *594:10 *757:22 9.37731e-05
27 *719:10 *8659:B 2.75167e-05
28 *719:10 *757:22 0
29 *719:12 *757:22 0
30 *719:14 *757:22 0
31 *719:16 *757:22 0
32 *735:1067 *757:22 0
33 *735:1075 *757:22 0
34 *735:1082 *757:22 0
35 *735:1095 *757:22 0
36 *735:1102 *8659:B 0
37 *735:1102 *757:22 0
*RES
1 *9215:X *757:10 30.8875 
2 *757:10 *757:18 36.905 
3 *757:18 *757:22 42.315 
4 *757:22 *8659:B 14.0325 
*END

*D_NET *758 0.0105069
*CONN
*I *9233:A I *D sky130_fd_sc_hd__clkbuf_1
*I *9041:Q O *D sky130_fd_sc_hd__dfrtp_1
*CAP
1 *9233:A 0
2 *9041:Q 3.31034e-05
3 *758:10 0.00520535
4 *758:8 0.00523845
5 *9041:CLK *758:8 3.00381e-05
*RES
1 *9041:Q *758:8 4.05 
2 *758:8 *758:10 87.315 
3 *758:10 *9233:A 3.6 
*END

*D_NET *759 0.0157992
*CONN
*I *8688:B I *D sky130_fd_sc_hd__nor3b_4
*I *8683:A I *D sky130_fd_sc_hd__buf_2
*I *8894:B_N I *D sky130_fd_sc_hd__and4bb_2
*I *8690:C I *D sky130_fd_sc_hd__and3b_1
*I *8689:B I *D sky130_fd_sc_hd__and3b_2
*I *9216:X O *D sky130_fd_sc_hd__buf_2
*CAP
1 *8688:B 0
2 *8683:A 8.49597e-05
3 *8894:B_N 0.000176948
4 *8690:C 0
5 *8689:B 0
6 *9216:X 0.00195413
7 *759:41 0.000225346
8 *759:33 0.000245906
9 *759:22 0.000608872
10 *759:18 0.00241342
11 *759:12 0.00387123
12 *8683:A *760:24 2.97004e-06
13 *8683:A *760:37 6.451e-05
14 *8683:A *760:48 1.67243e-05
15 *8894:B_N *8894:A_N 0.000129953
16 *759:12 *761:12 5.27885e-05
17 *759:12 *761:16 0
18 *759:18 *761:28 0
19 *759:22 *8688:C_N 6.43362e-05
20 *759:22 *761:34 6.5733e-05
21 *759:33 *8688:C_N 4.25177e-05
22 *759:33 *8690:B 8.49205e-05
23 *759:33 *761:42 3.73232e-05
24 *759:41 *8894:A_N 9.3062e-06
25 *759:41 *760:48 1.31646e-05
26 *8585:C_N *759:12 0.000129177
27 *8594:B1 *759:18 0
28 *8685:C1 *759:18 6.73665e-05
29 *8699:C1 *8894:B_N 0.00013521
30 *8699:C1 *759:41 0
31 *8702:C1 *8683:A 6.44505e-05
32 *8702:C1 *8894:B_N 7.89034e-05
33 *8702:C1 *759:41 3.64741e-05
34 *8703:B2 *759:18 9.17155e-05
35 *8703:B2 *759:22 1.10808e-05
36 *8713:B1 *759:18 7.23533e-05
37 *8723:A *759:18 0
38 *8734:A2 *759:18 0
39 *8757:C1 *759:12 0.000117832
40 *8761:A1 *759:12 0.000457828
41 *8778:C *759:12 6.47516e-05
42 *8784:B *759:12 0
43 *8820:B1 *759:12 0
44 *8823:B1 *759:12 0.000331921
45 *8894:C *8894:B_N 4.11718e-05
46 *8984:A1 *759:18 2.7881e-05
47 *8986:A2 *759:18 3.47837e-05
48 *8986:B1 *759:18 0
49 *8986:C1 *759:18 0
50 *8991:A *759:18 0.000116571
51 *8991:B *759:18 6.43553e-05
52 *8994:A *759:18 8.95174e-05
53 *8994:B *759:12 0
54 *8994:B *759:18 0.000440357
55 *9034:RESET_B *759:12 0.000158297
56 *9042:RESET_B *759:18 0
57 *9138:D *759:18 0
58 *245:8 *759:12 5.29131e-05
59 *251:76 *759:12 4.21314e-05
60 *251:110 *759:12 0.000504887
61 *252:12 *759:12 0.000183738
62 *263:14 *759:12 0.00014796
63 *337:12 *8683:A 4.82863e-05
64 *338:50 *759:18 0
65 *338:59 *759:18 0
66 *339:10 *8683:A 4.99619e-05
67 *345:12 *759:22 4.40506e-05
68 *345:12 *759:33 9.2006e-05
69 *352:107 *759:18 7.25036e-05
70 *436:10 *759:12 0.000191729
71 *436:50 *759:18 1.1561e-05
72 *441:12 *759:12 0
73 *442:24 *759:12 0.000131908
74 *444:16 *759:12 0.000460861
75 *545:8 *759:18 6.73665e-05
76 *547:10 *759:12 7.00066e-05
77 *571:28 *759:18 0.000102557
78 *572:20 *759:18 0
79 *602:14 *759:12 0.000102184
80 *602:40 *759:12 0.000373822
81 *644:45 *8894:B_N 9.53428e-06
82 *707:10 *759:18 0.000242182
83 *720:46 *759:18 0
84 *735:1189 *759:18 0
*RES
1 *9216:X *759:12 46.7475 
2 *759:12 *759:18 38.1425 
3 *759:18 *759:22 6.15 
4 *759:22 *8689:B 1.6 
5 *759:22 *759:33 4.535 
6 *759:33 *759:41 1.1925 
7 *759:41 *8690:C 3.6 
8 *759:41 *8894:B_N 7.68 
9 *759:33 *8683:A 6.0675 
10 *759:18 *8688:B 1.6 
*END

*D_NET *760 0.0226342
*CONN
*I *8894:A_N I *D sky130_fd_sc_hd__and4bb_2
*I *8688:C_N I *D sky130_fd_sc_hd__nor3b_4
*I *8689:A_N I *D sky130_fd_sc_hd__and3b_2
*I *8690:B I *D sky130_fd_sc_hd__and3b_1
*I *8681:A I *D sky130_fd_sc_hd__buf_2
*I *9217:X O *D sky130_fd_sc_hd__clkbuf_2
*CAP
1 *8894:A_N 0.000140947
2 *8688:C_N 0.000108084
3 *8689:A_N 0
4 *8690:B 8.80808e-05
5 *8681:A 0
6 *9217:X 0.00813332
7 *760:50 0.000108084
8 *760:48 0.00018173
9 *760:37 0.000247933
10 *760:24 0.00825239
11 *8688:C_N *761:34 0.000238012
12 *8688:C_N *761:36 0.000128664
13 *8688:C_N *761:42 4.77757e-05
14 *8690:B *761:42 1.47256e-05
15 *8894:A_N *8894:D 9.54469e-05
16 *760:24 *761:8 0.000287634
17 *760:24 *761:12 0.000238263
18 *8683:A *760:24 2.97004e-06
19 *8683:A *760:37 6.451e-05
20 *8683:A *760:48 1.67243e-05
21 *8691:A *8894:A_N 0.000287565
22 *8697:A3 *760:24 5.43285e-05
23 *8697:A3 *760:37 1.64451e-05
24 *8697:A3 *760:48 0
25 *8699:C1 *8894:A_N 1.07797e-05
26 *8702:C1 *760:24 0
27 *8722:A1 *760:24 0.000246432
28 *8894:B_N *8894:A_N 0.000129953
29 *8894:C *8894:A_N 1.08758e-05
30 *9079:D *760:24 0.00221179
31 *9084:D *760:24 1.88602e-05
32 *9178:A *760:24 0
33 *9217:A *760:24 3.12319e-05
34 *208:73 *760:24 7.71476e-05
35 *336:12 *760:24 0
36 *340:10 *760:24 0.000175686
37 *340:12 *760:24 5.79855e-05
38 *345:12 *8688:C_N 0.000160125
39 *345:12 *8894:A_N 3.31204e-05
40 *345:12 *760:48 1.70935e-05
41 *393:48 *760:24 0.000122324
42 *503:16 *8894:A_N 8.40269e-05
43 *757:18 *760:24 0.000278843
44 *759:22 *8688:C_N 6.43362e-05
45 *759:33 *8688:C_N 4.25177e-05
46 *759:33 *8690:B 8.49205e-05
47 *759:41 *8894:A_N 9.3062e-06
48 *759:41 *760:48 1.31646e-05
*RES
1 *9217:X *760:24 28.5369 
2 *760:24 *8681:A 3.6 
3 *760:24 *760:37 2.19 
4 *760:37 *8690:B 4.74 
5 *760:37 *760:48 0.87 
6 *760:48 *760:50 2 
7 *760:50 *8689:A_N 1.6 
8 *760:50 *8688:C_N 5.5 
9 *760:48 *8894:A_N 7.665 
*END

*D_NET *761 0.0246096
*CONN
*I *8688:A I *D sky130_fd_sc_hd__nor3b_4
*I *8689:C I *D sky130_fd_sc_hd__and3b_2
*I *8894:D I *D sky130_fd_sc_hd__and4bb_2
*I *8690:A_N I *D sky130_fd_sc_hd__and3b_1
*I *8679:A I *D sky130_fd_sc_hd__buf_2
*I *9218:X O *D sky130_fd_sc_hd__buf_2
*CAP
1 *8688:A 0
2 *8689:C 0
3 *8894:D 2.69775e-05
4 *8690:A_N 0
5 *8679:A 4.51574e-05
6 *9218:X 0.00220195
7 *761:42 0.000214645
8 *761:36 0.00027237
9 *761:34 0.000309668
10 *761:28 0.00196941
11 *761:16 0.00349394
12 *761:12 0.00273019
13 *761:8 0.00317384
14 *8558:A *761:28 0
15 *8588:A3 *761:16 8.28738e-05
16 *8590:B1 *761:28 0.000115773
17 *8593:B *761:28 0.000209183
18 *8594:B1 *761:28 6.88116e-05
19 *8685:A1 *761:28 0.000140247
20 *8688:C_N *761:34 0.000238012
21 *8688:C_N *761:36 0.000128664
22 *8688:C_N *761:42 4.77757e-05
23 *8690:B *761:42 1.47256e-05
24 *8697:B1 *761:28 0.000121437
25 *8698:C *8679:A 1.41165e-05
26 *8698:D *8679:A 4.77719e-05
27 *8699:C1 *8679:A 9.10452e-05
28 *8699:C1 *761:42 0.00010804
29 *8703:B2 *761:34 2.75145e-05
30 *8724:A1 *761:28 0
31 *8731:D *761:28 3.32412e-05
32 *8734:A1 *761:28 0
33 *8734:A2 *761:28 0.000312083
34 *8768:A *761:16 0.000455835
35 *8784:B *761:16 8.09021e-06
36 *8787:B *761:16 0.0001077
37 *8790:B1 *761:16 2.60957e-05
38 *8790:B1 *761:28 7.35632e-05
39 *8802:C *761:16 0.000130714
40 *8802:D *761:16 0
41 *8803:A *761:28 5.72829e-05
42 *8806:C *761:28 0.000159957
43 *8820:B1 *761:16 0.00139018
44 *8894:A_N *8894:D 9.54469e-05
45 *8984:A1 *761:28 2.03321e-05
46 *8986:A2 *761:28 4.84393e-05
47 *8987:D *761:16 2.05583e-05
48 *8994:C *761:28 0
49 *8995:B1 *761:28 7.06865e-05
50 *9032:D *761:16 0.000140844
51 *9034:RESET_B *761:16 0
52 *9079:CLK *761:16 2.53024e-05
53 *9079:D *761:16 0.000171881
54 *9178:A *761:16 0.000292529
55 *9178:A *761:28 0.000116318
56 *189:20 *761:28 9.21275e-05
57 *189:61 *761:28 0.000265376
58 *252:22 *761:16 0
59 *252:61 *761:28 6.44872e-05
60 *261:36 *761:16 7.06865e-05
61 *269:42 *761:16 0.000130106
62 *335:17 *8679:A 3.39426e-05
63 *336:80 *761:28 6.08204e-05
64 *336:97 *761:28 5.69898e-06
65 *338:50 *761:28 0.000139865
66 *344:10 *761:34 4.23245e-05
67 *345:12 *8894:D 9.54469e-05
68 *352:107 *761:28 8.52172e-05
69 *427:18 *761:16 0
70 *436:50 *761:28 1.01661e-05
71 *442:24 *761:16 0
72 *442:24 *761:28 0
73 *445:14 *761:16 0
74 *445:14 *761:28 0.000230627
75 *445:44 *761:28 0.000275743
76 *545:8 *761:28 9.428e-05
77 *596:16 *761:16 0
78 *602:14 *761:16 0
79 *620:58 *761:28 7.23602e-05
80 *720:46 *761:28 0.000147859
81 *757:10 *761:8 0.000165742
82 *757:18 *761:8 0.00219376
83 *759:12 *761:12 5.27885e-05
84 *759:12 *761:16 0
85 *759:18 *761:28 0
86 *759:22 *761:34 6.5733e-05
87 *759:33 *761:42 3.73232e-05
88 *760:24 *761:8 0.000287634
89 *760:24 *761:12 0.000238263
*RES
1 *9218:X *761:8 42.4225 
2 *761:8 *761:12 15.7325 
3 *761:12 *761:16 38.3325 
4 *761:16 *761:28 41.4275 
5 *761:28 *761:34 4.5375 
6 *761:34 *761:36 1.3125 
7 *761:36 *761:42 3.33 
8 *761:42 *8679:A 3.085 
9 *761:42 *8690:A_N 1.6 
10 *761:36 *8894:D 6.725 
11 *761:34 *8689:C 1.6 
12 *761:28 *8688:A 1.6 
*END

*D_NET *762 0.00084299
*CONN
*I *8736:C I *D sky130_fd_sc_hd__and3b_1
*I *9219:X O *D sky130_fd_sc_hd__clkbuf_1
*CAP
1 *8736:C 0.000385215
2 *9219:X 0.000385215
3 *8736:A_N *8736:C 5.73739e-05
4 *8736:B *8736:C 1.5186e-05
*RES
1 *9219:X *8736:C 12.63 
*END

*D_NET *763 0.0260126
*CONN
*I *8939:B2 I *D sky130_fd_sc_hd__a22o_1
*I *8933:A1 I *D sky130_fd_sc_hd__a22o_1
*I *8924:B1 I *D sky130_fd_sc_hd__a32o_1
*I *8903:B I *D sky130_fd_sc_hd__or2_1
*I *9220:X O *D sky130_fd_sc_hd__buf_2
*CAP
1 *8939:B2 0.00017696
2 *8933:A1 0.000324558
3 *8924:B1 0
4 *8903:B 0.000827941
5 *9220:X 0.00248883
6 *763:34 0.00131187
7 *763:26 0.00341475
8 *763:10 0.00649139
9 *763:8 0.006197
10 *8933:A1 *8934:A1 0
11 *8939:B2 *764:14 0
12 *763:10 *764:14 0
13 *763:34 *8934:A1 0.000137004
14 *8541:B1 *763:10 0
15 *8544:A_N *763:10 0
16 *8673:B *763:10 0
17 *8698:B *8933:A1 0
18 *8704:A_N *8903:B 8.40213e-05
19 *8704:D *8903:B 0.000187629
20 *8705:C1 *8903:B 9.88252e-05
21 *8924:A1 *8903:B 4.45629e-05
22 *8924:A3 *763:34 9.62181e-05
23 *8924:B2 *8903:B 3.05137e-05
24 *8924:B2 *763:34 2.09749e-05
25 *8932:C *763:34 0.000183525
26 *8933:B2 *8933:A1 3.59531e-06
27 *8934:B2 *8933:A1 0
28 *8935:A1 *763:34 0
29 *8947:B1 *763:26 0.000263595
30 *8947:B2 *763:26 0.00053598
31 *8953:B1 *763:26 0.000191758
32 *8953:B2 *763:26 3.23663e-05
33 *8969:B1 *763:26 0.000164874
34 *9088:CLK *763:10 5.92849e-05
35 *9088:D *763:10 0
36 *9094:CLK *763:10 0
37 *9094:D *763:10 0
38 *9096:CLK *763:10 4.28396e-05
39 *9098:D *8933:A1 2.67538e-05
40 *9099:RESET_B *8933:A1 0
41 *9099:RESET_B *763:34 0.000199413
42 *9101:D *8939:B2 1.56428e-05
43 *9102:D *8939:B2 0
44 *9112:D *763:26 1.83463e-05
45 *9170:CLK *763:10 0
46 *9172:RESET_B *763:10 0
47 *9175:D *763:10 0
48 *9175:RESET_B *763:10 0
49 *236:37 *763:26 7.65929e-05
50 *335:34 *8903:B 9.62877e-05
51 *503:30 *763:34 0.000178282
52 *505:28 *763:26 0.000108427
53 *534:40 *763:26 0.000280954
54 *642:33 *8933:A1 7.10578e-05
55 *642:33 *763:26 0.00022626
56 *684:16 *763:10 0
57 *706:18 *763:26 0
58 *716:34 *763:10 0
59 *723:33 *763:26 0.000168772
60 *735:191 *763:10 0.00025631
61 *735:198 *763:10 0.00035749
62 *735:208 *8939:B2 0.000187766
63 *735:208 *763:10 0.000201335
64 *735:215 *8939:B2 0.000132096
*RES
1 *9220:X *763:8 30.96 
2 *763:8 *763:10 65.13 
3 *763:10 *763:26 42.9 
4 *763:26 *763:34 15.2725 
5 *763:34 *8903:B 14.6725 
6 *763:34 *8924:B1 1.6 
7 *763:26 *8933:A1 10.415 
8 *763:10 *8939:B2 7.725 
*END

*D_NET *764 0.0249678
*CONN
*I *8940:B2 I *D sky130_fd_sc_hd__a22o_1
*I *8906:B I *D sky130_fd_sc_hd__or2_1
*I *8934:A1 I *D sky130_fd_sc_hd__a22o_1
*I *8925:B1 I *D sky130_fd_sc_hd__a32o_1
*I *9221:X O *D sky130_fd_sc_hd__clkbuf_2
*CAP
1 *8940:B2 8.72674e-06
2 *8906:B 0.0011341
3 *8934:A1 0.000508219
4 *8925:B1 1.56062e-05
5 *9221:X 0.00225476
6 *764:33 0.00186228
7 *764:18 0.00319156
8 *764:14 0.00508663
9 *764:8 0.00437668
10 *8693:A1 *8906:B 0.000142853
11 *8693:C1 *8906:B 0.000192728
12 *8693:C1 *764:18 9.44151e-05
13 *8693:C1 *764:33 0.000233768
14 *8699:B2 *8906:B 0.000201014
15 *8699:B2 *764:18 0.000756215
16 *8702:A1 *8925:B1 2.46827e-06
17 *8728:A2 *8906:B 0.000168042
18 *8733:B2 *8906:B 4.01535e-05
19 *8733:C1 *8906:B 8.09009e-05
20 *8897:B1 *8925:B1 2.24829e-05
21 *8924:A3 *8934:A1 0
22 *8925:A2 *8925:B1 3.64998e-06
23 *8933:A1 *8934:A1 0
24 *8935:A1 *8934:A1 4.48564e-05
25 *8939:B2 *764:14 0
26 *8955:A3 *8906:B 0.000107134
27 *9071:RESET_B *8934:A1 4.78703e-05
28 *9094:CLK *764:14 0.000436615
29 *9099:RESET_B *8934:A1 0.000304977
30 *9101:D *764:14 0
31 *9102:D *764:14 0.000499089
32 *9170:CLK *764:14 0.000134523
33 *239:88 *8925:B1 8.7152e-06
34 *239:103 *8925:B1 1.92979e-05
35 *524:29 *8934:A1 0.000569048
36 *686:39 *764:18 0.000183845
37 *707:78 *8906:B 0.000313275
38 *707:78 *764:33 6.43124e-05
39 *722:77 *8940:B2 1.15399e-05
40 *722:77 *764:14 0.000108647
41 *722:87 *764:14 0.000366994
42 *723:12 *8925:B1 1.79536e-05
43 *735:383 *8934:A1 0.00012969
44 *736:18 *764:14 0.00108512
45 *763:10 *764:14 0
46 *763:34 *8934:A1 0.000137004
*RES
1 *9221:X *764:8 28.2 
2 *764:8 *764:14 46.6875 
3 *764:14 *764:18 5.9568 
4 *764:18 *8925:B1 4.535 
5 *764:18 *764:33 0.678933 
6 *764:33 *8934:A1 17.3225 
7 *764:33 *8906:B 8.88137 
8 *764:14 *8940:B2 3.8325 
*END

*D_NET *765 0.000908123
*CONN
*I *8729:A I *D sky130_fd_sc_hd__inv_2
*I *9043:Q O *D sky130_fd_sc_hd__dfrtp_1
*CAP
1 *8729:A 0.000350629
2 *9043:Q 0.000350629
3 *8557:A *8729:A 0
4 *8558:A *8729:A 0
5 *8593:B *8729:A 6.5265e-05
6 *9138:CLK *8729:A 0.000141599
*RES
1 *9043:Q *8729:A 12.795 
*END

*D_NET *766 0.000633439
*CONN
*I *8700:A I *D sky130_fd_sc_hd__inv_2
*I *9044:Q O *D sky130_fd_sc_hd__dfrtp_1
*CAP
1 *8700:A 0.000208425
2 *9044:Q 0.000208425
3 *8556:A *8700:A 0
4 *9044:RESET_B *8700:A 4.94474e-05
5 *742:73 *8700:A 0.000167141
*RES
1 *9044:Q *8700:A 11.325 
*END
